ITEM: TIMESTEP
0
ITEM: NUMBER OF ATOMS
4000
ITEM: BOX BOUNDS pp pp pp
0.0000000000000000e+00 3.6149999999999999e+01
0.0000000000000000e+00 3.6149999999999999e+01
0.0000000000000000e+00 3.6149999999999999e+01
ITEM: ATOMS id type x y z
1 1 0 0 0
2 1 1.8075 1.8075 0
3 1 1.8075 0 1.8075
4 1 0 1.8075 1.8075
5 1 3.615 0 0
6 1 5.4225 1.8075 0
7 1 5.4225 0 1.8075
8 1 3.615 1.8075 1.8075
9 1 7.23 0 0
10 1 9.0375 1.8075 0
11 1 9.0375 0 1.8075
12 1 7.23 1.8075 1.8075
13 1 10.845 0 0
14 1 12.6525 1.8075 0
15 1 12.6525 0 1.8075
16 1 10.845 1.8075 1.8075
17 1 14.46 0 0
18 1 16.2675 1.8075 0
19 1 16.2675 0 1.8075
20 1 14.46 1.8075 1.8075
21 1 18.075 0 0
22 1 19.8825 1.8075 0
23 1 19.8825 0 1.8075
24 1 18.075 1.8075 1.8075
25 1 21.69 0 0
26 1 23.4975 1.8075 0
27 1 23.4975 0 1.8075
28 1 21.69 1.8075 1.8075
29 1 25.305 0 0
30 1 27.1125 1.8075 0
31 1 27.1125 0 1.8075
32 1 25.305 1.8075 1.8075
33 1 28.92 0 0
34 1 30.7275 1.8075 0
35 1 30.7275 0 1.8075
36 1 28.92 1.8075 1.8075
37 1 32.535 0 0
38 1 34.3425 1.8075 0
39 1 34.3425 0 1.8075
40 1 32.535 1.8075 1.8075
41 1 0 3.615 0
42 1 1.8075 5.4225 0
43 1 1.8075 3.615 1.8075
44 1 0 5.4225 1.8075
45 1 3.615 3.615 0
46 1 5.4225 5.4225 0
47 1 5.4225 3.615 1.8075
48 1 3.615 5.4225 1.8075
49 1 7.23 3.615 0
50 1 9.0375 5.4225 0
51 1 9.0375 3.615 1.8075
52 1 7.23 5.4225 1.8075
53 1 10.845 3.615 0
54 1 12.6525 5.4225 0
55 1 12.6525 3.615 1.8075
56 1 10.845 5.4225 1.8075
57 1 14.46 3.615 0
58 1 16.2675 5.4225 0
59 1 16.2675 3.615 1.8075
60 1 14.46 5.4225 1.8075
61 1 18.075 3.615 0
62 1 19.8825 5.4225 0
63 1 19.8825 3.615 1.8075
64 1 18.075 5.4225 1.8075
65 1 21.69 3.615 0
66 1 23.4975 5.4225 0
67 1 23.4975 3.615 1.8075
68 1 21.69 5.4225 1.8075
69 1 25.305 3.615 0
70 1 27.1125 5.4225 0
71 1 27.1125 3.615 1.8075
72 1 25.305 5.4225 1.8075
73 1 28.92 3.615 0
74 1 30.7275 5.4225 0
75 1 30.7275 3.615 1.8075
76 1 28.92 5.4225 1.8075
77 1 32.535 3.615 0
78 1 34.3425 5.4225 0
79 1 34.3425 3.615 1.8075
80 1 32.535 5.4225 1.8075
81 1 0 7.23 0
82 1 1.8075 9.0375 0
83 1 1.8075 7.23 1.8075
84 1 0 9.0375 1.8075
85 1 3.615 7.23 0
86 1 5.4225 9.0375 0
87 1 5.4225 7.23 1.8075
88 1 3.615 9.0375 1.8075
89 1 7.23 7.23 0
90 1 9.0375 9.0375 0
91 1 9.0375 7.23 1.8075
92 1 7.23 9.0375 1.8075
93 1 10.845 7.23 0
94 1 12.6525 9.0375 0
95 1 12.6525 7.23 1.8075
96 1 10.845 9.0375 1.8075
97 1 14.46 7.23 0
98 1 16.2675 9.0375 0
99 1 16.2675 7.23 1.8075
100 1 14.46 9.0375 1.8075
101 1 18.075 7.23 0
102 1 19.8825 9.0375 0
103 1 19.8825 7.23 1.8075
104 1 18.075 9.0375 1.8075
105 1 21.69 7.23 0
106 1 23.4975 9.0375 0
107 1 23.4975 7.23 1.8075
108 1 21.69 9.0375 1.8075
109 1 25.305 7.23 0
110 1 27.1125 9.0375 0
111 1 27.1125 7.23 1.8075
112 1 25.305 9.0375 1.8075
113 1 28.92 7.23 0
114 1 30.7275 9.0375 0
115 1 30.7275 7.23 1.8075
116 1 28.92 9.0375 1.8075
117 1 32.535 7.23 0
118 1 34.3425 9.0375 0
119 1 34.3425 7.23 1.8075
120 1 32.535 9.0375 1.8075
121 1 0 10.845 0
122 1 1.8075 12.6525 0
123 1 1.8075 10.845 1.8075
124 1 0 12.6525 1.8075
125 1 3.615 10.845 0
126 1 5.4225 12.6525 0
127 1 5.4225 10.845 1.8075
128 1 3.615 12.6525 1.8075
129 1 7.23 10.845 0
130 1 9.0375 12.6525 0
131 1 9.0375 10.845 1.8075
132 1 7.23 12.6525 1.8075
133 1 10.845 10.845 0
134 1 12.6525 12.6525 0
135 1 12.6525 10.845 1.8075
136 1 10.845 12.6525 1.8075
137 1 14.46 10.845 0
138 1 16.2675 12.6525 0
139 1 16.2675 10.845 1.8075
140 1 14.46 12.6525 1.8075
141 1 18.075 10.845 0
142 1 19.8825 12.6525 0
143 1 19.8825 10.845 1.8075
144 1 18.075 12.6525 1.8075
145 1 21.69 10.845 0
146 1 23.4975 12.6525 0
147 1 23.4975 10.845 1.8075
148 1 21.69 12.6525 1.8075
149 1 25.305 10.845 0
150 1 27.1125 12.6525 0
151 1 27.1125 10.845 1.8075
152 1 25.305 12.6525 1.8075
153 1 28.92 10.845 0
154 1 30.7275 12.6525 0
155 1 30.7275 10.845 1.8075
156 1 28.92 12.6525 1.8075
157 1 32.535 10.845 0
158 1 34.3425 12.6525 0
159 1 34.3425 10.845 1.8075
160 1 32.535 12.6525 1.8075
161 1 0 14.46 0
162 1 1.8075 16.2675 0
163 1 1.8075 14.46 1.8075
164 1 0 16.2675 1.8075
165 1 3.615 14.46 0
166 1 5.4225 16.2675 0
167 1 5.4225 14.46 1.8075
168 1 3.615 16.2675 1.8075
169 1 7.23 14.46 0
170 1 9.0375 16.2675 0
171 1 9.0375 14.46 1.8075
172 1 7.23 16.2675 1.8075
173 1 10.845 14.46 0
174 1 12.6525 16.2675 0
175 1 12.6525 14.46 1.8075
176 1 10.845 16.2675 1.8075
177 1 14.46 14.46 0
178 1 16.2675 16.2675 0
179 1 16.2675 14.46 1.8075
180 1 14.46 16.2675 1.8075
181 1 18.075 14.46 0
182 1 19.8825 16.2675 0
183 1 19.8825 14.46 1.8075
184 1 18.075 16.2675 1.8075
185 1 21.69 14.46 0
186 1 23.4975 16.2675 0
187 1 23.4975 14.46 1.8075
188 1 21.69 16.2675 1.8075
189 1 25.305 14.46 0
190 1 27.1125 16.2675 0
191 1 27.1125 14.46 1.8075
192 1 25.305 16.2675 1.8075
193 1 28.92 14.46 0
194 1 30.7275 16.2675 0
195 1 30.7275 14.46 1.8075
196 1 28.92 16.2675 1.8075
197 1 32.535 14.46 0
198 1 34.3425 16.2675 0
199 1 34.3425 14.46 1.8075
200 1 32.535 16.2675 1.8075
201 1 0 18.075 0
202 1 1.8075 19.8825 0
203 1 1.8075 18.075 1.8075
204 1 0 19.8825 1.8075
205 1 3.615 18.075 0
206 1 5.4225 19.8825 0
207 1 5.4225 18.075 1.8075
208 1 3.615 19.8825 1.8075
209 1 7.23 18.075 0
210 1 9.0375 19.8825 0
211 1 9.0375 18.075 1.8075
212 1 7.23 19.8825 1.8075
213 1 10.845 18.075 0
214 1 12.6525 19.8825 0
215 1 12.6525 18.075 1.8075
216 1 10.845 19.8825 1.8075
217 1 14.46 18.075 0
218 1 16.2675 19.8825 0
219 1 16.2675 18.075 1.8075
220 1 14.46 19.8825 1.8075
221 1 18.075 18.075 0
222 1 19.8825 19.8825 0
223 1 19.8825 18.075 1.8075
224 1 18.075 19.8825 1.8075
225 1 21.69 18.075 0
226 1 23.4975 19.8825 0
227 1 23.4975 18.075 1.8075
228 1 21.69 19.8825 1.8075
229 1 25.305 18.075 0
230 1 27.1125 19.8825 0
231 1 27.1125 18.075 1.8075
232 1 25.305 19.8825 1.8075
233 1 28.92 18.075 0
234 1 30.7275 19.8825 0
235 1 30.7275 18.075 1.8075
236 1 28.92 19.8825 1.8075
237 1 32.535 18.075 0
238 1 34.3425 19.8825 0
239 1 34.3425 18.075 1.8075
240 1 32.535 19.8825 1.8075
241 1 0 21.69 0
242 1 1.8075 23.4975 0
243 1 1.8075 21.69 1.8075
244 1 0 23.4975 1.8075
245 1 3.615 21.69 0
246 1 5.4225 23.4975 0
247 1 5.4225 21.69 1.8075
248 1 3.615 23.4975 1.8075
249 1 7.23 21.69 0
250 1 9.0375 23.4975 0
251 1 9.0375 21.69 1.8075
252 1 7.23 23.4975 1.8075
253 1 10.845 21.69 0
254 1 12.6525 23.4975 0
255 1 12.6525 21.69 1.8075
256 1 10.845 23.4975 1.8075
257 1 14.46 21.69 0
258 1 16.2675 23.4975 0
259 1 16.2675 21.69 1.8075
260 1 14.46 23.4975 1.8075
261 1 18.075 21.69 0
262 1 19.8825 23.4975 0
263 1 19.8825 21.69 1.8075
264 1 18.075 23.4975 1.8075
265 1 21.69 21.69 0
266 1 23.4975 23.4975 0
267 1 23.4975 21.69 1.8075
268 1 21.69 23.4975 1.8075
269 1 25.305 21.69 0
270 1 27.1125 23.4975 0
271 1 27.1125 21.69 1.8075
272 1 25.305 23.4975 1.8075
273 1 28.92 21.69 0
274 1 30.7275 23.4975 0
275 1 30.7275 21.69 1.8075
276 1 28.92 23.4975 1.8075
277 1 32.535 21.69 0
278 1 34.3425 23.4975 0
279 1 34.3425 21.69 1.8075
280 1 32.535 23.4975 1.8075
281 1 0 25.305 0
282 1 1.8075 27.1125 0
283 1 1.8075 25.305 1.8075
284 1 0 27.1125 1.8075
285 1 3.615 25.305 0
286 1 5.4225 27.1125 0
287 1 5.4225 25.305 1.8075
288 1 3.615 27.1125 1.8075
289 1 7.23 25.305 0
290 1 9.0375 27.1125 0
291 1 9.0375 25.305 1.8075
292 1 7.23 27.1125 1.8075
293 1 10.845 25.305 0
294 1 12.6525 27.1125 0
295 1 12.6525 25.305 1.8075
296 1 10.845 27.1125 1.8075
297 1 14.46 25.305 0
298 1 16.2675 27.1125 0
299 1 16.2675 25.305 1.8075
300 1 14.46 27.1125 1.8075
301 1 18.075 25.305 0
302 1 19.8825 27.1125 0
303 1 19.8825 25.305 1.8075
304 1 18.075 27.1125 1.8075
305 1 21.69 25.305 0
306 1 23.4975 27.1125 0
307 1 23.4975 25.305 1.8075
308 1 21.69 27.1125 1.8075
309 1 25.305 25.305 0
310 1 27.1125 27.1125 0
311 1 27.1125 25.305 1.8075
312 1 25.305 27.1125 1.8075
313 1 28.92 25.305 0
314 1 30.7275 27.1125 0
315 1 30.7275 25.305 1.8075
316 1 28.92 27.1125 1.8075
317 1 32.535 25.305 0
318 1 34.3425 27.1125 0
319 1 34.3425 25.305 1.8075
320 1 32.535 27.1125 1.8075
321 1 0 28.92 0
322 1 1.8075 30.7275 0
323 1 1.8075 28.92 1.8075
324 1 0 30.7275 1.8075
325 1 3.615 28.92 0
326 1 5.4225 30.7275 0
327 1 5.4225 28.92 1.8075
328 1 3.615 30.7275 1.8075
329 1 7.23 28.92 0
330 1 9.0375 30.7275 0
331 1 9.0375 28.92 1.8075
332 1 7.23 30.7275 1.8075
333 1 10.845 28.92 0
334 1 12.6525 30.7275 0
335 1 12.6525 28.92 1.8075
336 1 10.845 30.7275 1.8075
337 1 14.46 28.92 0
338 1 16.2675 30.7275 0
339 1 16.2675 28.92 1.8075
340 1 14.46 30.7275 1.8075
341 1 18.075 28.92 0
342 1 19.8825 30.7275 0
343 1 19.8825 28.92 1.8075
344 1 18.075 30.7275 1.8075
345 1 21.69 28.92 0
346 1 23.4975 30.7275 0
347 1 23.4975 28.92 1.8075
348 1 21.69 30.7275 1.8075
349 1 25.305 28.92 0
350 1 27.1125 30.7275 0
351 1 27.1125 28.92 1.8075
352 1 25.305 30.7275 1.8075
353 1 28.92 28.92 0
354 1 30.7275 30.7275 0
355 1 30.7275 28.92 1.8075
356 1 28.92 30.7275 1.8075
357 1 32.535 28.92 0
358 1 34.3425 30.7275 0
359 1 34.3425 28.92 1.8075
360 1 32.535 30.7275 1.8075
361 1 0 32.535 0
362 1 1.8075 34.3425 0
363 1 1.8075 32.535 1.8075
364 1 0 34.3425 1.8075
365 1 3.615 32.535 0
366 1 5.4225 34.3425 0
367 1 5.4225 32.535 1.8075
368 1 3.615 34.3425 1.8075
369 1 7.23 32.535 0
370 1 9.0375 34.3425 0
371 1 9.0375 32.535 1.8075
372 1 7.23 34.3425 1.8075
373 1 10.845 32.535 0
374 1 12.6525 34.3425 0
375 1 12.6525 32.535 1.8075
376 1 10.845 34.3425 1.8075
377 1 14.46 32.535 0
378 1 16.2675 34.3425 0
379 1 16.2675 32.535 1.8075
380 1 14.46 34.3425 1.8075
381 1 18.075 32.535 0
382 1 19.8825 34.3425 0
383 1 19.8825 32.535 1.8075
384 1 18.075 34.3425 1.8075
385 1 21.69 32.535 0
386 1 23.4975 34.3425 0
387 1 23.4975 32.535 1.8075
388 1 21.69 34.3425 1.8075
389 1 25.305 32.535 0
390 1 27.1125 34.3425 0
391 1 27.1125 32.535 1.8075
392 1 25.305 34.3425 1.8075
393 1 28.92 32.535 0
394 1 30.7275 34.3425 0
395 1 30.7275 32.535 1.8075
396 1 28.92 34.3425 1.8075
397 1 32.535 32.535 0
398 1 34.3425 34.3425 0
399 1 34.3425 32.535 1.8075
400 1 32.535 34.3425 1.8075
401 1 0 0 3.615
402 1 1.8075 1.8075 3.615
403 1 1.8075 0 5.4225
404 1 0 1.8075 5.4225
405 1 3.615 0 3.615
406 1 5.4225 1.8075 3.615
407 1 5.4225 0 5.4225
408 1 3.615 1.8075 5.4225
409 1 7.23 0 3.615
410 1 9.0375 1.8075 3.615
411 1 9.0375 0 5.4225
412 1 7.23 1.8075 5.4225
413 1 10.845 0 3.615
414 1 12.6525 1.8075 3.615
415 1 12.6525 0 5.4225
416 1 10.845 1.8075 5.4225
417 1 14.46 0 3.615
418 1 16.2675 1.8075 3.615
419 1 16.2675 0 5.4225
420 1 14.46 1.8075 5.4225
421 1 18.075 0 3.615
422 1 19.8825 1.8075 3.615
423 1 19.8825 0 5.4225
424 1 18.075 1.8075 5.4225
425 1 21.69 0 3.615
426 1 23.4975 1.8075 3.615
427 1 23.4975 0 5.4225
428 1 21.69 1.8075 5.4225
429 1 25.305 0 3.615
430 1 27.1125 1.8075 3.615
431 1 27.1125 0 5.4225
432 1 25.305 1.8075 5.4225
433 1 28.92 0 3.615
434 1 30.7275 1.8075 3.615
435 1 30.7275 0 5.4225
436 1 28.92 1.8075 5.4225
437 1 32.535 0 3.615
438 1 34.3425 1.8075 3.615
439 1 34.3425 0 5.4225
440 1 32.535 1.8075 5.4225
441 1 0 3.615 3.615
442 1 1.8075 5.4225 3.615
443 1 1.8075 3.615 5.4225
444 1 0 5.4225 5.4225
445 1 3.615 3.615 3.615
446 1 5.4225 5.4225 3.615
447 1 5.4225 3.615 5.4225
448 1 3.615 5.4225 5.4225
449 1 7.23 3.615 3.615
450 1 9.0375 5.4225 3.615
451 1 9.0375 3.615 5.4225
452 1 7.23 5.4225 5.4225
453 1 10.845 3.615 3.615
454 1 12.6525 5.4225 3.615
455 1 12.6525 3.615 5.4225
456 1 10.845 5.4225 5.4225
457 1 14.46 3.615 3.615
458 1 16.2675 5.4225 3.615
459 1 16.2675 3.615 5.4225
460 1 14.46 5.4225 5.4225
461 1 18.075 3.615 3.615
462 1 19.8825 5.4225 3.615
463 1 19.8825 3.615 5.4225
464 1 18.075 5.4225 5.4225
465 1 21.69 3.615 3.615
466 1 23.4975 5.4225 3.615
467 1 23.4975 3.615 5.4225
468 1 21.69 5.4225 5.4225
469 1 25.305 3.615 3.615
470 1 27.1125 5.4225 3.615
471 1 27.1125 3.615 5.4225
472 1 25.305 5.4225 5.4225
473 1 28.92 3.615 3.615
474 1 30.7275 5.4225 3.615
475 1 30.7275 3.615 5.4225
476 1 28.92 5.4225 5.4225
477 1 32.535 3.615 3.615
478 1 34.3425 5.4225 3.615
479 1 34.3425 3.615 5.4225
480 1 32.535 5.4225 5.4225
481 1 0 7.23 3.615
482 1 1.8075 9.0375 3.615
483 1 1.8075 7.23 5.4225
484 1 0 9.0375 5.4225
485 1 3.615 7.23 3.615
486 1 5.4225 9.0375 3.615
487 1 5.4225 7.23 5.4225
488 1 3.615 9.0375 5.4225
489 1 7.23 7.23 3.615
490 1 9.0375 9.0375 3.615
491 1 9.0375 7.23 5.4225
492 1 7.23 9.0375 5.4225
493 1 10.845 7.23 3.615
494 1 12.6525 9.0375 3.615
495 1 12.6525 7.23 5.4225
496 1 10.845 9.0375 5.4225
497 1 14.46 7.23 3.615
498 1 16.2675 9.0375 3.615
499 1 16.2675 7.23 5.4225
500 1 14.46 9.0375 5.4225
501 1 18.075 7.23 3.615
502 1 19.8825 9.0375 3.615
503 1 19.8825 7.23 5.4225
504 1 18.075 9.0375 5.4225
505 1 21.69 7.23 3.615
506 1 23.4975 9.0375 3.615
507 1 23.4975 7.23 5.4225
508 1 21.69 9.0375 5.4225
509 1 25.305 7.23 3.615
510 1 27.1125 9.0375 3.615
511 1 27.1125 7.23 5.4225
512 1 25.305 9.0375 5.4225
513 1 28.92 7.23 3.615
514 1 30.7275 9.0375 3.615
515 1 30.7275 7.23 5.4225
516 1 28.92 9.0375 5.4225
517 1 32.535 7.23 3.615
518 1 34.3425 9.0375 3.615
519 1 34.3425 7.23 5.4225
520 1 32.535 9.0375 5.4225
521 1 0 10.845 3.615
522 1 1.8075 12.6525 3.615
523 1 1.8075 10.845 5.4225
524 1 0 12.6525 5.4225
525 1 3.615 10.845 3.615
526 1 5.4225 12.6525 3.615
527 1 5.4225 10.845 5.4225
528 1 3.615 12.6525 5.4225
529 1 7.23 10.845 3.615
530 1 9.0375 12.6525 3.615
531 1 9.0375 10.845 5.4225
532 1 7.23 12.6525 5.4225
533 1 10.845 10.845 3.615
534 1 12.6525 12.6525 3.615
535 1 12.6525 10.845 5.4225
536 1 10.845 12.6525 5.4225
537 1 14.46 10.845 3.615
538 1 16.2675 12.6525 3.615
539 1 16.2675 10.845 5.4225
540 1 14.46 12.6525 5.4225
541 1 18.075 10.845 3.615
542 1 19.8825 12.6525 3.615
543 1 19.8825 10.845 5.4225
544 1 18.075 12.6525 5.4225
545 1 21.69 10.845 3.615
546 1 23.4975 12.6525 3.615
547 1 23.4975 10.845 5.4225
548 1 21.69 12.6525 5.4225
549 1 25.305 10.845 3.615
550 1 27.1125 12.6525 3.615
551 1 27.1125 10.845 5.4225
552 1 25.305 12.6525 5.4225
553 1 28.92 10.845 3.615
554 1 30.7275 12.6525 3.615
555 1 30.7275 10.845 5.4225
556 1 28.92 12.6525 5.4225
557 1 32.535 10.845 3.615
558 1 34.3425 12.6525 3.615
559 1 34.3425 10.845 5.4225
560 1 32.535 12.6525 5.4225
561 1 0 14.46 3.615
562 1 1.8075 16.2675 3.615
563 1 1.8075 14.46 5.4225
564 1 0 16.2675 5.4225
565 1 3.615 14.46 3.615
566 1 5.4225 16.2675 3.615
567 1 5.4225 14.46 5.4225
568 1 3.615 16.2675 5.4225
569 1 7.23 14.46 3.615
570 1 9.0375 16.2675 3.615
571 1 9.0375 14.46 5.4225
572 1 7.23 16.2675 5.4225
573 1 10.845 14.46 3.615
574 1 12.6525 16.2675 3.615
575 1 12.6525 14.46 5.4225
576 1 10.845 16.2675 5.4225
577 1 14.46 14.46 3.615
578 1 16.2675 16.2675 3.615
579 1 16.2675 14.46 5.4225
580 1 14.46 16.2675 5.4225
581 1 18.075 14.46 3.615
582 1 19.8825 16.2675 3.615
583 1 19.8825 14.46 5.4225
584 1 18.075 16.2675 5.4225
585 1 21.69 14.46 3.615
586 1 23.4975 16.2675 3.615
587 1 23.4975 14.46 5.4225
588 1 21.69 16.2675 5.4225
589 1 25.305 14.46 3.615
590 1 27.1125 16.2675 3.615
591 1 27.1125 14.46 5.4225
592 1 25.305 16.2675 5.4225
593 1 28.92 14.46 3.615
594 1 30.7275 16.2675 3.615
595 1 30.7275 14.46 5.4225
596 1 28.92 16.2675 5.4225
597 1 32.535 14.46 3.615
598 1 34.3425 16.2675 3.615
599 1 34.3425 14.46 5.4225
600 1 32.535 16.2675 5.4225
601 1 0 18.075 3.615
602 1 1.8075 19.8825 3.615
603 1 1.8075 18.075 5.4225
604 1 0 19.8825 5.4225
605 1 3.615 18.075 3.615
606 1 5.4225 19.8825 3.615
607 1 5.4225 18.075 5.4225
608 1 3.615 19.8825 5.4225
609 1 7.23 18.075 3.615
610 1 9.0375 19.8825 3.615
611 1 9.0375 18.075 5.4225
612 1 7.23 19.8825 5.4225
613 1 10.845 18.075 3.615
614 1 12.6525 19.8825 3.615
615 1 12.6525 18.075 5.4225
616 1 10.845 19.8825 5.4225
617 1 14.46 18.075 3.615
618 1 16.2675 19.8825 3.615
619 1 16.2675 18.075 5.4225
620 1 14.46 19.8825 5.4225
621 1 18.075 18.075 3.615
622 1 19.8825 19.8825 3.615
623 1 19.8825 18.075 5.4225
624 1 18.075 19.8825 5.4225
625 1 21.69 18.075 3.615
626 1 23.4975 19.8825 3.615
627 1 23.4975 18.075 5.4225
628 1 21.69 19.8825 5.4225
629 1 25.305 18.075 3.615
630 1 27.1125 19.8825 3.615
631 1 27.1125 18.075 5.4225
632 1 25.305 19.8825 5.4225
633 1 28.92 18.075 3.615
634 1 30.7275 19.8825 3.615
635 1 30.7275 18.075 5.4225
636 1 28.92 19.8825 5.4225
637 1 32.535 18.075 3.615
638 1 34.3425 19.8825 3.615
639 1 34.3425 18.075 5.4225
640 1 32.535 19.8825 5.4225
641 1 0 21.69 3.615
642 1 1.8075 23.4975 3.615
643 1 1.8075 21.69 5.4225
644 1 0 23.4975 5.4225
645 1 3.615 21.69 3.615
646 1 5.4225 23.4975 3.615
647 1 5.4225 21.69 5.4225
648 1 3.615 23.4975 5.4225
649 1 7.23 21.69 3.615
650 1 9.0375 23.4975 3.615
651 1 9.0375 21.69 5.4225
652 1 7.23 23.4975 5.4225
653 1 10.845 21.69 3.615
654 1 12.6525 23.4975 3.615
655 1 12.6525 21.69 5.4225
656 1 10.845 23.4975 5.4225
657 1 14.46 21.69 3.615
658 1 16.2675 23.4975 3.615
659 1 16.2675 21.69 5.4225
660 1 14.46 23.4975 5.4225
661 1 18.075 21.69 3.615
662 1 19.8825 23.4975 3.615
663 1 19.8825 21.69 5.4225
664 1 18.075 23.4975 5.4225
665 1 21.69 21.69 3.615
666 1 23.4975 23.4975 3.615
667 1 23.4975 21.69 5.4225
668 1 21.69 23.4975 5.4225
669 1 25.305 21.69 3.615
670 1 27.1125 23.4975 3.615
671 1 27.1125 21.69 5.4225
672 1 25.305 23.4975 5.4225
673 1 28.92 21.69 3.615
674 1 30.7275 23.4975 3.615
675 1 30.7275 21.69 5.4225
676 1 28.92 23.4975 5.4225
677 1 32.535 21.69 3.615
678 1 34.3425 23.4975 3.615
679 1 34.3425 21.69 5.4225
680 1 32.535 23.4975 5.4225
681 1 0 25.305 3.615
682 1 1.8075 27.1125 3.615
683 1 1.8075 25.305 5.4225
684 1 0 27.1125 5.4225
685 1 3.615 25.305 3.615
686 1 5.4225 27.1125 3.615
687 1 5.4225 25.305 5.4225
688 1 3.615 27.1125 5.4225
689 1 7.23 25.305 3.615
690 1 9.0375 27.1125 3.615
691 1 9.0375 25.305 5.4225
692 1 7.23 27.1125 5.4225
693 1 10.845 25.305 3.615
694 1 12.6525 27.1125 3.615
695 1 12.6525 25.305 5.4225
696 1 10.845 27.1125 5.4225
697 1 14.46 25.305 3.615
698 1 16.2675 27.1125 3.615
699 1 16.2675 25.305 5.4225
700 1 14.46 27.1125 5.4225
701 1 18.075 25.305 3.615
702 1 19.8825 27.1125 3.615
703 1 19.8825 25.305 5.4225
704 1 18.075 27.1125 5.4225
705 1 21.69 25.305 3.615
706 1 23.4975 27.1125 3.615
707 1 23.4975 25.305 5.4225
708 1 21.69 27.1125 5.4225
709 1 25.305 25.305 3.615
710 1 27.1125 27.1125 3.615
711 1 27.1125 25.305 5.4225
712 1 25.305 27.1125 5.4225
713 1 28.92 25.305 3.615
714 1 30.7275 27.1125 3.615
715 1 30.7275 25.305 5.4225
716 1 28.92 27.1125 5.4225
717 1 32.535 25.305 3.615
718 1 34.3425 27.1125 3.615
719 1 34.3425 25.305 5.4225
720 1 32.535 27.1125 5.4225
721 1 0 28.92 3.615
722 1 1.8075 30.7275 3.615
723 1 1.8075 28.92 5.4225
724 1 0 30.7275 5.4225
725 1 3.615 28.92 3.615
726 1 5.4225 30.7275 3.615
727 1 5.4225 28.92 5.4225
728 1 3.615 30.7275 5.4225
729 1 7.23 28.92 3.615
730 1 9.0375 30.7275 3.615
731 1 9.0375 28.92 5.4225
732 1 7.23 30.7275 5.4225
733 1 10.845 28.92 3.615
734 1 12.6525 30.7275 3.615
735 1 12.6525 28.92 5.4225
736 1 10.845 30.7275 5.4225
737 1 14.46 28.92 3.615
738 1 16.2675 30.7275 3.615
739 1 16.2675 28.92 5.4225
740 1 14.46 30.7275 5.4225
741 1 18.075 28.92 3.615
742 1 19.8825 30.7275 3.615
743 1 19.8825 28.92 5.4225
744 1 18.075 30.7275 5.4225
745 1 21.69 28.92 3.615
746 1 23.4975 30.7275 3.615
747 1 23.4975 28.92 5.4225
748 1 21.69 30.7275 5.4225
749 1 25.305 28.92 3.615
750 1 27.1125 30.7275 3.615
751 1 27.1125 28.92 5.4225
752 1 25.305 30.7275 5.4225
753 1 28.92 28.92 3.615
754 1 30.7275 30.7275 3.615
755 1 30.7275 28.92 5.4225
756 1 28.92 30.7275 5.4225
757 1 32.535 28.92 3.615
758 1 34.3425 30.7275 3.615
759 1 34.3425 28.92 5.4225
760 1 32.535 30.7275 5.4225
761 1 0 32.535 3.615
762 1 1.8075 34.3425 3.615
763 1 1.8075 32.535 5.4225
764 1 0 34.3425 5.4225
765 1 3.615 32.535 3.615
766 1 5.4225 34.3425 3.615
767 1 5.4225 32.535 5.4225
768 1 3.615 34.3425 5.4225
769 1 7.23 32.535 3.615
770 1 9.0375 34.3425 3.615
771 1 9.0375 32.535 5.4225
772 1 7.23 34.3425 5.4225
773 1 10.845 32.535 3.615
774 1 12.6525 34.3425 3.615
775 1 12.6525 32.535 5.4225
776 1 10.845 34.3425 5.4225
777 1 14.46 32.535 3.615
778 1 16.2675 34.3425 3.615
779 1 16.2675 32.535 5.4225
780 1 14.46 34.3425 5.4225
781 1 18.075 32.535 3.615
782 1 19.8825 34.3425 3.615
783 1 19.8825 32.535 5.4225
784 1 18.075 34.3425 5.4225
785 1 21.69 32.535 3.615
786 1 23.4975 34.3425 3.615
787 1 23.4975 32.535 5.4225
788 1 21.69 34.3425 5.4225
789 1 25.305 32.535 3.615
790 1 27.1125 34.3425 3.615
791 1 27.1125 32.535 5.4225
792 1 25.305 34.3425 5.4225
793 1 28.92 32.535 3.615
794 1 30.7275 34.3425 3.615
795 1 30.7275 32.535 5.4225
796 1 28.92 34.3425 5.4225
797 1 32.535 32.535 3.615
798 1 34.3425 34.3425 3.615
799 1 34.3425 32.535 5.4225
800 1 32.535 34.3425 5.4225
801 1 0 0 7.23
802 1 1.8075 1.8075 7.23
803 1 1.8075 0 9.0375
804 1 0 1.8075 9.0375
805 1 3.615 0 7.23
806 1 5.4225 1.8075 7.23
807 1 5.4225 0 9.0375
808 1 3.615 1.8075 9.0375
809 1 7.23 0 7.23
810 1 9.0375 1.8075 7.23
811 1 9.0375 0 9.0375
812 1 7.23 1.8075 9.0375
813 1 10.845 0 7.23
814 1 12.6525 1.8075 7.23
815 1 12.6525 0 9.0375
816 1 10.845 1.8075 9.0375
817 1 14.46 0 7.23
818 1 16.2675 1.8075 7.23
819 1 16.2675 0 9.0375
820 1 14.46 1.8075 9.0375
821 1 18.075 0 7.23
822 1 19.8825 1.8075 7.23
823 1 19.8825 0 9.0375
824 1 18.075 1.8075 9.0375
825 1 21.69 0 7.23
826 1 23.4975 1.8075 7.23
827 1 23.4975 0 9.0375
828 1 21.69 1.8075 9.0375
829 1 25.305 0 7.23
830 1 27.1125 1.8075 7.23
831 1 27.1125 0 9.0375
832 1 25.305 1.8075 9.0375
833 1 28.92 0 7.23
834 1 30.7275 1.8075 7.23
835 1 30.7275 0 9.0375
836 1 28.92 1.8075 9.0375
837 1 32.535 0 7.23
838 1 34.3425 1.8075 7.23
839 1 34.3425 0 9.0375
840 1 32.535 1.8075 9.0375
841 1 0 3.615 7.23
842 1 1.8075 5.4225 7.23
843 1 1.8075 3.615 9.0375
844 1 0 5.4225 9.0375
845 1 3.615 3.615 7.23
846 1 5.4225 5.4225 7.23
847 1 5.4225 3.615 9.0375
848 1 3.615 5.4225 9.0375
849 1 7.23 3.615 7.23
850 1 9.0375 5.4225 7.23
851 1 9.0375 3.615 9.0375
852 1 7.23 5.4225 9.0375
853 1 10.845 3.615 7.23
854 1 12.6525 5.4225 7.23
855 1 12.6525 3.615 9.0375
856 1 10.845 5.4225 9.0375
857 1 14.46 3.615 7.23
858 1 16.2675 5.4225 7.23
859 1 16.2675 3.615 9.0375
860 1 14.46 5.4225 9.0375
861 1 18.075 3.615 7.23
862 1 19.8825 5.4225 7.23
863 1 19.8825 3.615 9.0375
864 1 18.075 5.4225 9.0375
865 1 21.69 3.615 7.23
866 1 23.4975 5.4225 7.23
867 1 23.4975 3.615 9.0375
868 1 21.69 5.4225 9.0375
869 1 25.305 3.615 7.23
870 1 27.1125 5.4225 7.23
871 1 27.1125 3.615 9.0375
872 1 25.305 5.4225 9.0375
873 1 28.92 3.615 7.23
874 1 30.7275 5.4225 7.23
875 1 30.7275 3.615 9.0375
876 1 28.92 5.4225 9.0375
877 1 32.535 3.615 7.23
878 1 34.3425 5.4225 7.23
879 1 34.3425 3.615 9.0375
880 1 32.535 5.4225 9.0375
881 1 0 7.23 7.23
882 1 1.8075 9.0375 7.23
883 1 1.8075 7.23 9.0375
884 1 0 9.0375 9.0375
885 1 3.615 7.23 7.23
886 1 5.4225 9.0375 7.23
887 1 5.4225 7.23 9.0375
888 1 3.615 9.0375 9.0375
889 1 7.23 7.23 7.23
890 1 9.0375 9.0375 7.23
891 1 9.0375 7.23 9.0375
892 1 7.23 9.0375 9.0375
893 1 10.845 7.23 7.23
894 1 12.6525 9.0375 7.23
895 1 12.6525 7.23 9.0375
896 1 10.845 9.0375 9.0375
897 1 14.46 7.23 7.23
898 1 16.2675 9.0375 7.23
899 1 16.2675 7.23 9.0375
900 1 14.46 9.0375 9.0375
901 1 18.075 7.23 7.23
902 1 19.8825 9.0375 7.23
903 1 19.8825 7.23 9.0375
904 1 18.075 9.0375 9.0375
905 1 21.69 7.23 7.23
906 1 23.4975 9.0375 7.23
907 1 23.4975 7.23 9.0375
908 1 21.69 9.0375 9.0375
909 1 25.305 7.23 7.23
910 1 27.1125 9.0375 7.23
911 1 27.1125 7.23 9.0375
912 1 25.305 9.0375 9.0375
913 1 28.92 7.23 7.23
914 1 30.7275 9.0375 7.23
915 1 30.7275 7.23 9.0375
916 1 28.92 9.0375 9.0375
917 1 32.535 7.23 7.23
918 1 34.3425 9.0375 7.23
919 1 34.3425 7.23 9.0375
920 1 32.535 9.0375 9.0375
921 1 0 10.845 7.23
922 1 1.8075 12.6525 7.23
923 1 1.8075 10.845 9.0375
924 1 0 12.6525 9.0375
925 1 3.615 10.845 7.23
926 1 5.4225 12.6525 7.23
927 1 5.4225 10.845 9.0375
928 1 3.615 12.6525 9.0375
929 1 7.23 10.845 7.23
930 1 9.0375 12.6525 7.23
931 1 9.0375 10.845 9.0375
932 1 7.23 12.6525 9.0375
933 1 10.845 10.845 7.23
934 1 12.6525 12.6525 7.23
935 1 12.6525 10.845 9.0375
936 1 10.845 12.6525 9.0375
937 1 14.46 10.845 7.23
938 1 16.2675 12.6525 7.23
939 1 16.2675 10.845 9.0375
940 1 14.46 12.6525 9.0375
941 1 18.075 10.845 7.23
942 1 19.8825 12.6525 7.23
943 1 19.8825 10.845 9.0375
944 1 18.075 12.6525 9.0375
945 1 21.69 10.845 7.23
946 1 23.4975 12.6525 7.23
947 1 23.4975 10.845 9.0375
948 1 21.69 12.6525 9.0375
949 1 25.305 10.845 7.23
950 1 27.1125 12.6525 7.23
951 1 27.1125 10.845 9.0375
952 1 25.305 12.6525 9.0375
953 1 28.92 10.845 7.23
954 1 30.7275 12.6525 7.23
955 1 30.7275 10.845 9.0375
956 1 28.92 12.6525 9.0375
957 1 32.535 10.845 7.23
958 1 34.3425 12.6525 7.23
959 1 34.3425 10.845 9.0375
960 1 32.535 12.6525 9.0375
961 1 0 14.46 7.23
962 1 1.8075 16.2675 7.23
963 1 1.8075 14.46 9.0375
964 1 0 16.2675 9.0375
965 1 3.615 14.46 7.23
966 1 5.4225 16.2675 7.23
967 1 5.4225 14.46 9.0375
968 1 3.615 16.2675 9.0375
969 1 7.23 14.46 7.23
970 1 9.0375 16.2675 7.23
971 1 9.0375 14.46 9.0375
972 1 7.23 16.2675 9.0375
973 1 10.845 14.46 7.23
974 1 12.6525 16.2675 7.23
975 1 12.6525 14.46 9.0375
976 1 10.845 16.2675 9.0375
977 1 14.46 14.46 7.23
978 1 16.2675 16.2675 7.23
979 1 16.2675 14.46 9.0375
980 1 14.46 16.2675 9.0375
981 1 18.075 14.46 7.23
982 1 19.8825 16.2675 7.23
983 1 19.8825 14.46 9.0375
984 1 18.075 16.2675 9.0375
985 1 21.69 14.46 7.23
986 1 23.4975 16.2675 7.23
987 1 23.4975 14.46 9.0375
988 1 21.69 16.2675 9.0375
989 1 25.305 14.46 7.23
990 1 27.1125 16.2675 7.23
991 1 27.1125 14.46 9.0375
992 1 25.305 16.2675 9.0375
993 1 28.92 14.46 7.23
994 1 30.7275 16.2675 7.23
995 1 30.7275 14.46 9.0375
996 1 28.92 16.2675 9.0375
997 1 32.535 14.46 7.23
998 1 34.3425 16.2675 7.23
999 1 34.3425 14.46 9.0375
1000 1 32.535 16.2675 9.0375
1001 1 0 18.075 7.23
1002 1 1.8075 19.8825 7.23
1003 1 1.8075 18.075 9.0375
1004 1 0 19.8825 9.0375
1005 1 3.615 18.075 7.23
1006 1 5.4225 19.8825 7.23
1007 1 5.4225 18.075 9.0375
1008 1 3.615 19.8825 9.0375
1009 1 7.23 18.075 7.23
1010 1 9.0375 19.8825 7.23
1011 1 9.0375 18.075 9.0375
1012 1 7.23 19.8825 9.0375
1013 1 10.845 18.075 7.23
1014 1 12.6525 19.8825 7.23
1015 1 12.6525 18.075 9.0375
1016 1 10.845 19.8825 9.0375
1017 1 14.46 18.075 7.23
1018 1 16.2675 19.8825 7.23
1019 1 16.2675 18.075 9.0375
1020 1 14.46 19.8825 9.0375
1021 1 18.075 18.075 7.23
1022 1 19.8825 19.8825 7.23
1023 1 19.8825 18.075 9.0375
1024 1 18.075 19.8825 9.0375
1025 1 21.69 18.075 7.23
1026 1 23.4975 19.8825 7.23
1027 1 23.4975 18.075 9.0375
1028 1 21.69 19.8825 9.0375
1029 1 25.305 18.075 7.23
1030 1 27.1125 19.8825 7.23
1031 1 27.1125 18.075 9.0375
1032 1 25.305 19.8825 9.0375
1033 1 28.92 18.075 7.23
1034 1 30.7275 19.8825 7.23
1035 1 30.7275 18.075 9.0375
1036 1 28.92 19.8825 9.0375
1037 1 32.535 18.075 7.23
1038 1 34.3425 19.8825 7.23
1039 1 34.3425 18.075 9.0375
1040 1 32.535 19.8825 9.0375
1041 1 0 21.69 7.23
1042 1 1.8075 23.4975 7.23
1043 1 1.8075 21.69 9.0375
1044 1 0 23.4975 9.0375
1045 1 3.615 21.69 7.23
1046 1 5.4225 23.4975 7.23
1047 1 5.4225 21.69 9.0375
1048 1 3.615 23.4975 9.0375
1049 1 7.23 21.69 7.23
1050 1 9.0375 23.4975 7.23
1051 1 9.0375 21.69 9.0375
1052 1 7.23 23.4975 9.0375
1053 1 10.845 21.69 7.23
1054 1 12.6525 23.4975 7.23
1055 1 12.6525 21.69 9.0375
1056 1 10.845 23.4975 9.0375
1057 1 14.46 21.69 7.23
1058 1 16.2675 23.4975 7.23
1059 1 16.2675 21.69 9.0375
1060 1 14.46 23.4975 9.0375
1061 1 18.075 21.69 7.23
1062 1 19.8825 23.4975 7.23
1063 1 19.8825 21.69 9.0375
1064 1 18.075 23.4975 9.0375
1065 1 21.69 21.69 7.23
1066 1 23.4975 23.4975 7.23
1067 1 23.4975 21.69 9.0375
1068 1 21.69 23.4975 9.0375
1069 1 25.305 21.69 7.23
1070 1 27.1125 23.4975 7.23
1071 1 27.1125 21.69 9.0375
1072 1 25.305 23.4975 9.0375
1073 1 28.92 21.69 7.23
1074 1 30.7275 23.4975 7.23
1075 1 30.7275 21.69 9.0375
1076 1 28.92 23.4975 9.0375
1077 1 32.535 21.69 7.23
1078 1 34.3425 23.4975 7.23
1079 1 34.3425 21.69 9.0375
1080 1 32.535 23.4975 9.0375
1081 1 0 25.305 7.23
1082 1 1.8075 27.1125 7.23
1083 1 1.8075 25.305 9.0375
1084 1 0 27.1125 9.0375
1085 1 3.615 25.305 7.23
1086 1 5.4225 27.1125 7.23
1087 1 5.4225 25.305 9.0375
1088 1 3.615 27.1125 9.0375
1089 1 7.23 25.305 7.23
1090 1 9.0375 27.1125 7.23
1091 1 9.0375 25.305 9.0375
1092 1 7.23 27.1125 9.0375
1093 1 10.845 25.305 7.23
1094 1 12.6525 27.1125 7.23
1095 1 12.6525 25.305 9.0375
1096 1 10.845 27.1125 9.0375
1097 1 14.46 25.305 7.23
1098 1 16.2675 27.1125 7.23
1099 1 16.2675 25.305 9.0375
1100 1 14.46 27.1125 9.0375
1101 1 18.075 25.305 7.23
1102 1 19.8825 27.1125 7.23
1103 1 19.8825 25.305 9.0375
1104 1 18.075 27.1125 9.0375
1105 1 21.69 25.305 7.23
1106 1 23.4975 27.1125 7.23
1107 1 23.4975 25.305 9.0375
1108 1 21.69 27.1125 9.0375
1109 1 25.305 25.305 7.23
1110 1 27.1125 27.1125 7.23
1111 1 27.1125 25.305 9.0375
1112 1 25.305 27.1125 9.0375
1113 1 28.92 25.305 7.23
1114 1 30.7275 27.1125 7.23
1115 1 30.7275 25.305 9.0375
1116 1 28.92 27.1125 9.0375
1117 1 32.535 25.305 7.23
1118 1 34.3425 27.1125 7.23
1119 1 34.3425 25.305 9.0375
1120 1 32.535 27.1125 9.0375
1121 1 0 28.92 7.23
1122 1 1.8075 30.7275 7.23
1123 1 1.8075 28.92 9.0375
1124 1 0 30.7275 9.0375
1125 1 3.615 28.92 7.23
1126 1 5.4225 30.7275 7.23
1127 1 5.4225 28.92 9.0375
1128 1 3.615 30.7275 9.0375
1129 1 7.23 28.92 7.23
1130 1 9.0375 30.7275 7.23
1131 1 9.0375 28.92 9.0375
1132 1 7.23 30.7275 9.0375
1133 1 10.845 28.92 7.23
1134 1 12.6525 30.7275 7.23
1135 1 12.6525 28.92 9.0375
1136 1 10.845 30.7275 9.0375
1137 1 14.46 28.92 7.23
1138 1 16.2675 30.7275 7.23
1139 1 16.2675 28.92 9.0375
1140 1 14.46 30.7275 9.0375
1141 1 18.075 28.92 7.23
1142 1 19.8825 30.7275 7.23
1143 1 19.8825 28.92 9.0375
1144 1 18.075 30.7275 9.0375
1145 1 21.69 28.92 7.23
1146 1 23.4975 30.7275 7.23
1147 1 23.4975 28.92 9.0375
1148 1 21.69 30.7275 9.0375
1149 1 25.305 28.92 7.23
1150 1 27.1125 30.7275 7.23
1151 1 27.1125 28.92 9.0375
1152 1 25.305 30.7275 9.0375
1153 1 28.92 28.92 7.23
1154 1 30.7275 30.7275 7.23
1155 1 30.7275 28.92 9.0375
1156 1 28.92 30.7275 9.0375
1157 1 32.535 28.92 7.23
1158 1 34.3425 30.7275 7.23
1159 1 34.3425 28.92 9.0375
1160 1 32.535 30.7275 9.0375
1161 1 0 32.535 7.23
1162 1 1.8075 34.3425 7.23
1163 1 1.8075 32.535 9.0375
1164 1 0 34.3425 9.0375
1165 1 3.615 32.535 7.23
1166 1 5.4225 34.3425 7.23
1167 1 5.4225 32.535 9.0375
1168 1 3.615 34.3425 9.0375
1169 1 7.23 32.535 7.23
1170 1 9.0375 34.3425 7.23
1171 1 9.0375 32.535 9.0375
1172 1 7.23 34.3425 9.0375
1173 1 10.845 32.535 7.23
1174 1 12.6525 34.3425 7.23
1175 1 12.6525 32.535 9.0375
1176 1 10.845 34.3425 9.0375
1177 1 14.46 32.535 7.23
1178 1 16.2675 34.3425 7.23
1179 1 16.2675 32.535 9.0375
1180 1 14.46 34.3425 9.0375
1181 1 18.075 32.535 7.23
1182 1 19.8825 34.3425 7.23
1183 1 19.8825 32.535 9.0375
1184 1 18.075 34.3425 9.0375
1185 1 21.69 32.535 7.23
1186 1 23.4975 34.3425 7.23
1187 1 23.4975 32.535 9.0375
1188 1 21.69 34.3425 9.0375
1189 1 25.305 32.535 7.23
1190 1 27.1125 34.3425 7.23
1191 1 27.1125 32.535 9.0375
1192 1 25.305 34.3425 9.0375
1193 1 28.92 32.535 7.23
1194 1 30.7275 34.3425 7.23
1195 1 30.7275 32.535 9.0375
1196 1 28.92 34.3425 9.0375
1197 1 32.535 32.535 7.23
1198 1 34.3425 34.3425 7.23
1199 1 34.3425 32.535 9.0375
1200 1 32.535 34.3425 9.0375
1201 1 0 0 10.845
1202 1 1.8075 1.8075 10.845
1203 1 1.8075 0 12.6525
1204 1 0 1.8075 12.6525
1205 1 3.615 0 10.845
1206 1 5.4225 1.8075 10.845
1207 1 5.4225 0 12.6525
1208 1 3.615 1.8075 12.6525
1209 1 7.23 0 10.845
1210 1 9.0375 1.8075 10.845
1211 1 9.0375 0 12.6525
1212 1 7.23 1.8075 12.6525
1213 1 10.845 0 10.845
1214 1 12.6525 1.8075 10.845
1215 1 12.6525 0 12.6525
1216 1 10.845 1.8075 12.6525
1217 1 14.46 0 10.845
1218 1 16.2675 1.8075 10.845
1219 1 16.2675 0 12.6525
1220 1 14.46 1.8075 12.6525
1221 1 18.075 0 10.845
1222 1 19.8825 1.8075 10.845
1223 1 19.8825 0 12.6525
1224 1 18.075 1.8075 12.6525
1225 1 21.69 0 10.845
1226 1 23.4975 1.8075 10.845
1227 1 23.4975 0 12.6525
1228 1 21.69 1.8075 12.6525
1229 1 25.305 0 10.845
1230 1 27.1125 1.8075 10.845
1231 1 27.1125 0 12.6525
1232 1 25.305 1.8075 12.6525
1233 1 28.92 0 10.845
1234 1 30.7275 1.8075 10.845
1235 1 30.7275 0 12.6525
1236 1 28.92 1.8075 12.6525
1237 1 32.535 0 10.845
1238 1 34.3425 1.8075 10.845
1239 1 34.3425 0 12.6525
1240 1 32.535 1.8075 12.6525
1241 1 0 3.615 10.845
1242 1 1.8075 5.4225 10.845
1243 1 1.8075 3.615 12.6525
1244 1 0 5.4225 12.6525
1245 1 3.615 3.615 10.845
1246 1 5.4225 5.4225 10.845
1247 1 5.4225 3.615 12.6525
1248 1 3.615 5.4225 12.6525
1249 1 7.23 3.615 10.845
1250 1 9.0375 5.4225 10.845
1251 1 9.0375 3.615 12.6525
1252 1 7.23 5.4225 12.6525
1253 1 10.845 3.615 10.845
1254 1 12.6525 5.4225 10.845
1255 1 12.6525 3.615 12.6525
1256 1 10.845 5.4225 12.6525
1257 1 14.46 3.615 10.845
1258 1 16.2675 5.4225 10.845
1259 1 16.2675 3.615 12.6525
1260 1 14.46 5.4225 12.6525
1261 1 18.075 3.615 10.845
1262 1 19.8825 5.4225 10.845
1263 1 19.8825 3.615 12.6525
1264 1 18.075 5.4225 12.6525
1265 1 21.69 3.615 10.845
1266 1 23.4975 5.4225 10.845
1267 1 23.4975 3.615 12.6525
1268 1 21.69 5.4225 12.6525
1269 1 25.305 3.615 10.845
1270 1 27.1125 5.4225 10.845
1271 1 27.1125 3.615 12.6525
1272 1 25.305 5.4225 12.6525
1273 1 28.92 3.615 10.845
1274 1 30.7275 5.4225 10.845
1275 1 30.7275 3.615 12.6525
1276 1 28.92 5.4225 12.6525
1277 1 32.535 3.615 10.845
1278 1 34.3425 5.4225 10.845
1279 1 34.3425 3.615 12.6525
1280 1 32.535 5.4225 12.6525
1281 1 0 7.23 10.845
1282 1 1.8075 9.0375 10.845
1283 1 1.8075 7.23 12.6525
1284 1 0 9.0375 12.6525
1285 1 3.615 7.23 10.845
1286 1 5.4225 9.0375 10.845
1287 1 5.4225 7.23 12.6525
1288 1 3.615 9.0375 12.6525
1289 1 7.23 7.23 10.845
1290 1 9.0375 9.0375 10.845
1291 1 9.0375 7.23 12.6525
1292 1 7.23 9.0375 12.6525
1293 1 10.845 7.23 10.845
1294 1 12.6525 9.0375 10.845
1295 1 12.6525 7.23 12.6525
1296 1 10.845 9.0375 12.6525
1297 1 14.46 7.23 10.845
1298 1 16.2675 9.0375 10.845
1299 1 16.2675 7.23 12.6525
1300 1 14.46 9.0375 12.6525
1301 1 18.075 7.23 10.845
1302 1 19.8825 9.0375 10.845
1303 1 19.8825 7.23 12.6525
1304 1 18.075 9.0375 12.6525
1305 1 21.69 7.23 10.845
1306 1 23.4975 9.0375 10.845
1307 1 23.4975 7.23 12.6525
1308 1 21.69 9.0375 12.6525
1309 1 25.305 7.23 10.845
1310 1 27.1125 9.0375 10.845
1311 1 27.1125 7.23 12.6525
1312 1 25.305 9.0375 12.6525
1313 1 28.92 7.23 10.845
1314 1 30.7275 9.0375 10.845
1315 1 30.7275 7.23 12.6525
1316 1 28.92 9.0375 12.6525
1317 1 32.535 7.23 10.845
1318 1 34.3425 9.0375 10.845
1319 1 34.3425 7.23 12.6525
1320 1 32.535 9.0375 12.6525
1321 1 0 10.845 10.845
1322 1 1.8075 12.6525 10.845
1323 1 1.8075 10.845 12.6525
1324 1 0 12.6525 12.6525
1325 1 3.615 10.845 10.845
1326 1 5.4225 12.6525 10.845
1327 1 5.4225 10.845 12.6525
1328 1 3.615 12.6525 12.6525
1329 1 7.23 10.845 10.845
1330 1 9.0375 12.6525 10.845
1331 1 9.0375 10.845 12.6525
1332 1 7.23 12.6525 12.6525
1333 1 10.845 10.845 10.845
1334 1 12.6525 12.6525 10.845
1335 1 12.6525 10.845 12.6525
1336 1 10.845 12.6525 12.6525
1337 1 14.46 10.845 10.845
1338 1 16.2675 12.6525 10.845
1339 1 16.2675 10.845 12.6525
1340 1 14.46 12.6525 12.6525
1341 1 18.075 10.845 10.845
1342 1 19.8825 12.6525 10.845
1343 1 19.8825 10.845 12.6525
1344 1 18.075 12.6525 12.6525
1345 1 21.69 10.845 10.845
1346 1 23.4975 12.6525 10.845
1347 1 23.4975 10.845 12.6525
1348 1 21.69 12.6525 12.6525
1349 1 25.305 10.845 10.845
1350 1 27.1125 12.6525 10.845
1351 1 27.1125 10.845 12.6525
1352 1 25.305 12.6525 12.6525
1353 1 28.92 10.845 10.845
1354 1 30.7275 12.6525 10.845
1355 1 30.7275 10.845 12.6525
1356 1 28.92 12.6525 12.6525
1357 1 32.535 10.845 10.845
1358 1 34.3425 12.6525 10.845
1359 1 34.3425 10.845 12.6525
1360 1 32.535 12.6525 12.6525
1361 1 0 14.46 10.845
1362 1 1.8075 16.2675 10.845
1363 1 1.8075 14.46 12.6525
1364 1 0 16.2675 12.6525
1365 1 3.615 14.46 10.845
1366 1 5.4225 16.2675 10.845
1367 1 5.4225 14.46 12.6525
1368 1 3.615 16.2675 12.6525
1369 1 7.23 14.46 10.845
1370 1 9.0375 16.2675 10.845
1371 1 9.0375 14.46 12.6525
1372 1 7.23 16.2675 12.6525
1373 1 10.845 14.46 10.845
1374 1 12.6525 16.2675 10.845
1375 1 12.6525 14.46 12.6525
1376 1 10.845 16.2675 12.6525
1377 1 14.46 14.46 10.845
1378 1 16.2675 16.2675 10.845
1379 1 16.2675 14.46 12.6525
1380 1 14.46 16.2675 12.6525
1381 1 18.075 14.46 10.845
1382 1 19.8825 16.2675 10.845
1383 1 19.8825 14.46 12.6525
1384 1 18.075 16.2675 12.6525
1385 1 21.69 14.46 10.845
1386 1 23.4975 16.2675 10.845
1387 1 23.4975 14.46 12.6525
1388 1 21.69 16.2675 12.6525
1389 1 25.305 14.46 10.845
1390 1 27.1125 16.2675 10.845
1391 1 27.1125 14.46 12.6525
1392 1 25.305 16.2675 12.6525
1393 1 28.92 14.46 10.845
1394 1 30.7275 16.2675 10.845
1395 1 30.7275 14.46 12.6525
1396 1 28.92 16.2675 12.6525
1397 1 32.535 14.46 10.845
1398 1 34.3425 16.2675 10.845
1399 1 34.3425 14.46 12.6525
1400 1 32.535 16.2675 12.6525
1401 1 0 18.075 10.845
1402 1 1.8075 19.8825 10.845
1403 1 1.8075 18.075 12.6525
1404 1 0 19.8825 12.6525
1405 1 3.615 18.075 10.845
1406 1 5.4225 19.8825 10.845
1407 1 5.4225 18.075 12.6525
1408 1 3.615 19.8825 12.6525
1409 1 7.23 18.075 10.845
1410 1 9.0375 19.8825 10.845
1411 1 9.0375 18.075 12.6525
1412 1 7.23 19.8825 12.6525
1413 1 10.845 18.075 10.845
1414 1 12.6525 19.8825 10.845
1415 1 12.6525 18.075 12.6525
1416 1 10.845 19.8825 12.6525
1417 1 14.46 18.075 10.845
1418 1 16.2675 19.8825 10.845
1419 1 16.2675 18.075 12.6525
1420 1 14.46 19.8825 12.6525
1421 1 18.075 18.075 10.845
1422 1 19.8825 19.8825 10.845
1423 1 19.8825 18.075 12.6525
1424 1 18.075 19.8825 12.6525
1425 1 21.69 18.075 10.845
1426 1 23.4975 19.8825 10.845
1427 1 23.4975 18.075 12.6525
1428 1 21.69 19.8825 12.6525
1429 1 25.305 18.075 10.845
1430 1 27.1125 19.8825 10.845
1431 1 27.1125 18.075 12.6525
1432 1 25.305 19.8825 12.6525
1433 1 28.92 18.075 10.845
1434 1 30.7275 19.8825 10.845
1435 1 30.7275 18.075 12.6525
1436 1 28.92 19.8825 12.6525
1437 1 32.535 18.075 10.845
1438 1 34.3425 19.8825 10.845
1439 1 34.3425 18.075 12.6525
1440 1 32.535 19.8825 12.6525
1441 1 0 21.69 10.845
1442 1 1.8075 23.4975 10.845
1443 1 1.8075 21.69 12.6525
1444 1 0 23.4975 12.6525
1445 1 3.615 21.69 10.845
1446 1 5.4225 23.4975 10.845
1447 1 5.4225 21.69 12.6525
1448 1 3.615 23.4975 12.6525
1449 1 7.23 21.69 10.845
1450 1 9.0375 23.4975 10.845
1451 1 9.0375 21.69 12.6525
1452 1 7.23 23.4975 12.6525
1453 1 10.845 21.69 10.845
1454 1 12.6525 23.4975 10.845
1455 1 12.6525 21.69 12.6525
1456 1 10.845 23.4975 12.6525
1457 1 14.46 21.69 10.845
1458 1 16.2675 23.4975 10.845
1459 1 16.2675 21.69 12.6525
1460 1 14.46 23.4975 12.6525
1461 1 18.075 21.69 10.845
1462 1 19.8825 23.4975 10.845
1463 1 19.8825 21.69 12.6525
1464 1 18.075 23.4975 12.6525
1465 1 21.69 21.69 10.845
1466 1 23.4975 23.4975 10.845
1467 1 23.4975 21.69 12.6525
1468 1 21.69 23.4975 12.6525
1469 1 25.305 21.69 10.845
1470 1 27.1125 23.4975 10.845
1471 1 27.1125 21.69 12.6525
1472 1 25.305 23.4975 12.6525
1473 1 28.92 21.69 10.845
1474 1 30.7275 23.4975 10.845
1475 1 30.7275 21.69 12.6525
1476 1 28.92 23.4975 12.6525
1477 1 32.535 21.69 10.845
1478 1 34.3425 23.4975 10.845
1479 1 34.3425 21.69 12.6525
1480 1 32.535 23.4975 12.6525
1481 1 0 25.305 10.845
1482 1 1.8075 27.1125 10.845
1483 1 1.8075 25.305 12.6525
1484 1 0 27.1125 12.6525
1485 1 3.615 25.305 10.845
1486 1 5.4225 27.1125 10.845
1487 1 5.4225 25.305 12.6525
1488 1 3.615 27.1125 12.6525
1489 1 7.23 25.305 10.845
1490 1 9.0375 27.1125 10.845
1491 1 9.0375 25.305 12.6525
1492 1 7.23 27.1125 12.6525
1493 1 10.845 25.305 10.845
1494 1 12.6525 27.1125 10.845
1495 1 12.6525 25.305 12.6525
1496 1 10.845 27.1125 12.6525
1497 1 14.46 25.305 10.845
1498 1 16.2675 27.1125 10.845
1499 1 16.2675 25.305 12.6525
1500 1 14.46 27.1125 12.6525
1501 1 18.075 25.305 10.845
1502 1 19.8825 27.1125 10.845
1503 1 19.8825 25.305 12.6525
1504 1 18.075 27.1125 12.6525
1505 1 21.69 25.305 10.845
1506 1 23.4975 27.1125 10.845
1507 1 23.4975 25.305 12.6525
1508 1 21.69 27.1125 12.6525
1509 1 25.305 25.305 10.845
1510 1 27.1125 27.1125 10.845
1511 1 27.1125 25.305 12.6525
1512 1 25.305 27.1125 12.6525
1513 1 28.92 25.305 10.845
1514 1 30.7275 27.1125 10.845
1515 1 30.7275 25.305 12.6525
1516 1 28.92 27.1125 12.6525
1517 1 32.535 25.305 10.845
1518 1 34.3425 27.1125 10.845
1519 1 34.3425 25.305 12.6525
1520 1 32.535 27.1125 12.6525
1521 1 0 28.92 10.845
1522 1 1.8075 30.7275 10.845
1523 1 1.8075 28.92 12.6525
1524 1 0 30.7275 12.6525
1525 1 3.615 28.92 10.845
1526 1 5.4225 30.7275 10.845
1527 1 5.4225 28.92 12.6525
1528 1 3.615 30.7275 12.6525
1529 1 7.23 28.92 10.845
1530 1 9.0375 30.7275 10.845
1531 1 9.0375 28.92 12.6525
1532 1 7.23 30.7275 12.6525
1533 1 10.845 28.92 10.845
1534 1 12.6525 30.7275 10.845
1535 1 12.6525 28.92 12.6525
1536 1 10.845 30.7275 12.6525
1537 1 14.46 28.92 10.845
1538 1 16.2675 30.7275 10.845
1539 1 16.2675 28.92 12.6525
1540 1 14.46 30.7275 12.6525
1541 1 18.075 28.92 10.845
1542 1 19.8825 30.7275 10.845
1543 1 19.8825 28.92 12.6525
1544 1 18.075 30.7275 12.6525
1545 1 21.69 28.92 10.845
1546 1 23.4975 30.7275 10.845
1547 1 23.4975 28.92 12.6525
1548 1 21.69 30.7275 12.6525
1549 1 25.305 28.92 10.845
1550 1 27.1125 30.7275 10.845
1551 1 27.1125 28.92 12.6525
1552 1 25.305 30.7275 12.6525
1553 1 28.92 28.92 10.845
1554 1 30.7275 30.7275 10.845
1555 1 30.7275 28.92 12.6525
1556 1 28.92 30.7275 12.6525
1557 1 32.535 28.92 10.845
1558 1 34.3425 30.7275 10.845
1559 1 34.3425 28.92 12.6525
1560 1 32.535 30.7275 12.6525
1561 1 0 32.535 10.845
1562 1 1.8075 34.3425 10.845
1563 1 1.8075 32.535 12.6525
1564 1 0 34.3425 12.6525
1565 1 3.615 32.535 10.845
1566 1 5.4225 34.3425 10.845
1567 1 5.4225 32.535 12.6525
1568 1 3.615 34.3425 12.6525
1569 1 7.23 32.535 10.845
1570 1 9.0375 34.3425 10.845
1571 1 9.0375 32.535 12.6525
1572 1 7.23 34.3425 12.6525
1573 1 10.845 32.535 10.845
1574 1 12.6525 34.3425 10.845
1575 1 12.6525 32.535 12.6525
1576 1 10.845 34.3425 12.6525
1577 1 14.46 32.535 10.845
1578 1 16.2675 34.3425 10.845
1579 1 16.2675 32.535 12.6525
1580 1 14.46 34.3425 12.6525
1581 1 18.075 32.535 10.845
1582 1 19.8825 34.3425 10.845
1583 1 19.8825 32.535 12.6525
1584 1 18.075 34.3425 12.6525
1585 1 21.69 32.535 10.845
1586 1 23.4975 34.3425 10.845
1587 1 23.4975 32.535 12.6525
1588 1 21.69 34.3425 12.6525
1589 1 25.305 32.535 10.845
1590 1 27.1125 34.3425 10.845
1591 1 27.1125 32.535 12.6525
1592 1 25.305 34.3425 12.6525
1593 1 28.92 32.535 10.845
1594 1 30.7275 34.3425 10.845
1595 1 30.7275 32.535 12.6525
1596 1 28.92 34.3425 12.6525
1597 1 32.535 32.535 10.845
1598 1 34.3425 34.3425 10.845
1599 1 34.3425 32.535 12.6525
1600 1 32.535 34.3425 12.6525
1601 1 0 0 14.46
1602 1 1.8075 1.8075 14.46
1603 1 1.8075 0 16.2675
1604 1 0 1.8075 16.2675
1605 1 3.615 0 14.46
1606 1 5.4225 1.8075 14.46
1607 1 5.4225 0 16.2675
1608 1 3.615 1.8075 16.2675
1609 1 7.23 0 14.46
1610 1 9.0375 1.8075 14.46
1611 1 9.0375 0 16.2675
1612 1 7.23 1.8075 16.2675
1613 1 10.845 0 14.46
1614 1 12.6525 1.8075 14.46
1615 1 12.6525 0 16.2675
1616 1 10.845 1.8075 16.2675
1617 1 14.46 0 14.46
1618 1 16.2675 1.8075 14.46
1619 1 16.2675 0 16.2675
1620 1 14.46 1.8075 16.2675
1621 1 18.075 0 14.46
1622 1 19.8825 1.8075 14.46
1623 1 19.8825 0 16.2675
1624 1 18.075 1.8075 16.2675
1625 1 21.69 0 14.46
1626 1 23.4975 1.8075 14.46
1627 1 23.4975 0 16.2675
1628 1 21.69 1.8075 16.2675
1629 1 25.305 0 14.46
1630 1 27.1125 1.8075 14.46
1631 1 27.1125 0 16.2675
1632 1 25.305 1.8075 16.2675
1633 1 28.92 0 14.46
1634 1 30.7275 1.8075 14.46
1635 1 30.7275 0 16.2675
1636 1 28.92 1.8075 16.2675
1637 1 32.535 0 14.46
1638 1 34.3425 1.8075 14.46
1639 1 34.3425 0 16.2675
1640 1 32.535 1.8075 16.2675
1641 1 0 3.615 14.46
1642 1 1.8075 5.4225 14.46
1643 1 1.8075 3.615 16.2675
1644 1 0 5.4225 16.2675
1645 1 3.615 3.615 14.46
1646 1 5.4225 5.4225 14.46
1647 1 5.4225 3.615 16.2675
1648 1 3.615 5.4225 16.2675
1649 1 7.23 3.615 14.46
1650 1 9.0375 5.4225 14.46
1651 1 9.0375 3.615 16.2675
1652 1 7.23 5.4225 16.2675
1653 1 10.845 3.615 14.46
1654 1 12.6525 5.4225 14.46
1655 1 12.6525 3.615 16.2675
1656 1 10.845 5.4225 16.2675
1657 1 14.46 3.615 14.46
1658 1 16.2675 5.4225 14.46
1659 1 16.2675 3.615 16.2675
1660 1 14.46 5.4225 16.2675
1661 1 18.075 3.615 14.46
1662 1 19.8825 5.4225 14.46
1663 1 19.8825 3.615 16.2675
1664 1 18.075 5.4225 16.2675
1665 1 21.69 3.615 14.46
1666 1 23.4975 5.4225 14.46
1667 1 23.4975 3.615 16.2675
1668 1 21.69 5.4225 16.2675
1669 1 25.305 3.615 14.46
1670 1 27.1125 5.4225 14.46
1671 1 27.1125 3.615 16.2675
1672 1 25.305 5.4225 16.2675
1673 1 28.92 3.615 14.46
1674 1 30.7275 5.4225 14.46
1675 1 30.7275 3.615 16.2675
1676 1 28.92 5.4225 16.2675
1677 1 32.535 3.615 14.46
1678 1 34.3425 5.4225 14.46
1679 1 34.3425 3.615 16.2675
1680 1 32.535 5.4225 16.2675
1681 1 0 7.23 14.46
1682 1 1.8075 9.0375 14.46
1683 1 1.8075 7.23 16.2675
1684 1 0 9.0375 16.2675
1685 1 3.615 7.23 14.46
1686 1 5.4225 9.0375 14.46
1687 1 5.4225 7.23 16.2675
1688 1 3.615 9.0375 16.2675
1689 1 7.23 7.23 14.46
1690 1 9.0375 9.0375 14.46
1691 1 9.0375 7.23 16.2675
1692 1 7.23 9.0375 16.2675
1693 1 10.845 7.23 14.46
1694 1 12.6525 9.0375 14.46
1695 1 12.6525 7.23 16.2675
1696 1 10.845 9.0375 16.2675
1697 1 14.46 7.23 14.46
1698 1 16.2675 9.0375 14.46
1699 1 16.2675 7.23 16.2675
1700 1 14.46 9.0375 16.2675
1701 1 18.075 7.23 14.46
1702 1 19.8825 9.0375 14.46
1703 1 19.8825 7.23 16.2675
1704 1 18.075 9.0375 16.2675
1705 1 21.69 7.23 14.46
1706 1 23.4975 9.0375 14.46
1707 1 23.4975 7.23 16.2675
1708 1 21.69 9.0375 16.2675
1709 1 25.305 7.23 14.46
1710 1 27.1125 9.0375 14.46
1711 1 27.1125 7.23 16.2675
1712 1 25.305 9.0375 16.2675
1713 1 28.92 7.23 14.46
1714 1 30.7275 9.0375 14.46
1715 1 30.7275 7.23 16.2675
1716 1 28.92 9.0375 16.2675
1717 1 32.535 7.23 14.46
1718 1 34.3425 9.0375 14.46
1719 1 34.3425 7.23 16.2675
1720 1 32.535 9.0375 16.2675
1721 1 0 10.845 14.46
1722 1 1.8075 12.6525 14.46
1723 1 1.8075 10.845 16.2675
1724 1 0 12.6525 16.2675
1725 1 3.615 10.845 14.46
1726 1 5.4225 12.6525 14.46
1727 1 5.4225 10.845 16.2675
1728 1 3.615 12.6525 16.2675
1729 1 7.23 10.845 14.46
1730 1 9.0375 12.6525 14.46
1731 1 9.0375 10.845 16.2675
1732 1 7.23 12.6525 16.2675
1733 1 10.845 10.845 14.46
1734 1 12.6525 12.6525 14.46
1735 1 12.6525 10.845 16.2675
1736 1 10.845 12.6525 16.2675
1737 1 14.46 10.845 14.46
1738 1 16.2675 12.6525 14.46
1739 1 16.2675 10.845 16.2675
1740 1 14.46 12.6525 16.2675
1741 1 18.075 10.845 14.46
1742 1 19.8825 12.6525 14.46
1743 1 19.8825 10.845 16.2675
1744 1 18.075 12.6525 16.2675
1745 1 21.69 10.845 14.46
1746 1 23.4975 12.6525 14.46
1747 1 23.4975 10.845 16.2675
1748 1 21.69 12.6525 16.2675
1749 1 25.305 10.845 14.46
1750 1 27.1125 12.6525 14.46
1751 1 27.1125 10.845 16.2675
1752 1 25.305 12.6525 16.2675
1753 1 28.92 10.845 14.46
1754 1 30.7275 12.6525 14.46
1755 1 30.7275 10.845 16.2675
1756 1 28.92 12.6525 16.2675
1757 1 32.535 10.845 14.46
1758 1 34.3425 12.6525 14.46
1759 1 34.3425 10.845 16.2675
1760 1 32.535 12.6525 16.2675
1761 1 0 14.46 14.46
1762 1 1.8075 16.2675 14.46
1763 1 1.8075 14.46 16.2675
1764 1 0 16.2675 16.2675
1765 1 3.615 14.46 14.46
1766 1 5.4225 16.2675 14.46
1767 1 5.4225 14.46 16.2675
1768 1 3.615 16.2675 16.2675
1769 1 7.23 14.46 14.46
1770 1 9.0375 16.2675 14.46
1771 1 9.0375 14.46 16.2675
1772 1 7.23 16.2675 16.2675
1773 1 10.845 14.46 14.46
1774 1 12.6525 16.2675 14.46
1775 1 12.6525 14.46 16.2675
1776 1 10.845 16.2675 16.2675
1777 1 14.46 14.46 14.46
1778 1 16.2675 16.2675 14.46
1779 1 16.2675 14.46 16.2675
1780 1 14.46 16.2675 16.2675
1781 1 18.075 14.46 14.46
1782 1 19.8825 16.2675 14.46
1783 1 19.8825 14.46 16.2675
1784 1 18.075 16.2675 16.2675
1785 1 21.69 14.46 14.46
1786 1 23.4975 16.2675 14.46
1787 1 23.4975 14.46 16.2675
1788 1 21.69 16.2675 16.2675
1789 1 25.305 14.46 14.46
1790 1 27.1125 16.2675 14.46
1791 1 27.1125 14.46 16.2675
1792 1 25.305 16.2675 16.2675
1793 1 28.92 14.46 14.46
1794 1 30.7275 16.2675 14.46
1795 1 30.7275 14.46 16.2675
1796 1 28.92 16.2675 16.2675
1797 1 32.535 14.46 14.46
1798 1 34.3425 16.2675 14.46
1799 1 34.3425 14.46 16.2675
1800 1 32.535 16.2675 16.2675
1801 1 0 18.075 14.46
1802 1 1.8075 19.8825 14.46
1803 1 1.8075 18.075 16.2675
1804 1 0 19.8825 16.2675
1805 1 3.615 18.075 14.46
1806 1 5.4225 19.8825 14.46
1807 1 5.4225 18.075 16.2675
1808 1 3.615 19.8825 16.2675
1809 1 7.23 18.075 14.46
1810 1 9.0375 19.8825 14.46
1811 1 9.0375 18.075 16.2675
1812 1 7.23 19.8825 16.2675
1813 1 10.845 18.075 14.46
1814 1 12.6525 19.8825 14.46
1815 1 12.6525 18.075 16.2675
1816 1 10.845 19.8825 16.2675
1817 1 14.46 18.075 14.46
1818 1 16.2675 19.8825 14.46
1819 1 16.2675 18.075 16.2675
1820 1 14.46 19.8825 16.2675
1821 1 18.075 18.075 14.46
1822 1 19.8825 19.8825 14.46
1823 1 19.8825 18.075 16.2675
1824 1 18.075 19.8825 16.2675
1825 1 21.69 18.075 14.46
1826 1 23.4975 19.8825 14.46
1827 1 23.4975 18.075 16.2675
1828 1 21.69 19.8825 16.2675
1829 1 25.305 18.075 14.46
1830 1 27.1125 19.8825 14.46
1831 1 27.1125 18.075 16.2675
1832 1 25.305 19.8825 16.2675
1833 1 28.92 18.075 14.46
1834 1 30.7275 19.8825 14.46
1835 1 30.7275 18.075 16.2675
1836 1 28.92 19.8825 16.2675
1837 1 32.535 18.075 14.46
1838 1 34.3425 19.8825 14.46
1839 1 34.3425 18.075 16.2675
1840 1 32.535 19.8825 16.2675
1841 1 0 21.69 14.46
1842 1 1.8075 23.4975 14.46
1843 1 1.8075 21.69 16.2675
1844 1 0 23.4975 16.2675
1845 1 3.615 21.69 14.46
1846 1 5.4225 23.4975 14.46
1847 1 5.4225 21.69 16.2675
1848 1 3.615 23.4975 16.2675
1849 1 7.23 21.69 14.46
1850 1 9.0375 23.4975 14.46
1851 1 9.0375 21.69 16.2675
1852 1 7.23 23.4975 16.2675
1853 1 10.845 21.69 14.46
1854 1 12.6525 23.4975 14.46
1855 1 12.6525 21.69 16.2675
1856 1 10.845 23.4975 16.2675
1857 1 14.46 21.69 14.46
1858 1 16.2675 23.4975 14.46
1859 1 16.2675 21.69 16.2675
1860 1 14.46 23.4975 16.2675
1861 1 18.075 21.69 14.46
1862 1 19.8825 23.4975 14.46
1863 1 19.8825 21.69 16.2675
1864 1 18.075 23.4975 16.2675
1865 1 21.69 21.69 14.46
1866 1 23.4975 23.4975 14.46
1867 1 23.4975 21.69 16.2675
1868 1 21.69 23.4975 16.2675
1869 1 25.305 21.69 14.46
1870 1 27.1125 23.4975 14.46
1871 1 27.1125 21.69 16.2675
1872 1 25.305 23.4975 16.2675
1873 1 28.92 21.69 14.46
1874 1 30.7275 23.4975 14.46
1875 1 30.7275 21.69 16.2675
1876 1 28.92 23.4975 16.2675
1877 1 32.535 21.69 14.46
1878 1 34.3425 23.4975 14.46
1879 1 34.3425 21.69 16.2675
1880 1 32.535 23.4975 16.2675
1881 1 0 25.305 14.46
1882 1 1.8075 27.1125 14.46
1883 1 1.8075 25.305 16.2675
1884 1 0 27.1125 16.2675
1885 1 3.615 25.305 14.46
1886 1 5.4225 27.1125 14.46
1887 1 5.4225 25.305 16.2675
1888 1 3.615 27.1125 16.2675
1889 1 7.23 25.305 14.46
1890 1 9.0375 27.1125 14.46
1891 1 9.0375 25.305 16.2675
1892 1 7.23 27.1125 16.2675
1893 1 10.845 25.305 14.46
1894 1 12.6525 27.1125 14.46
1895 1 12.6525 25.305 16.2675
1896 1 10.845 27.1125 16.2675
1897 1 14.46 25.305 14.46
1898 1 16.2675 27.1125 14.46
1899 1 16.2675 25.305 16.2675
1900 1 14.46 27.1125 16.2675
1901 1 18.075 25.305 14.46
1902 1 19.8825 27.1125 14.46
1903 1 19.8825 25.305 16.2675
1904 1 18.075 27.1125 16.2675
1905 1 21.69 25.305 14.46
1906 1 23.4975 27.1125 14.46
1907 1 23.4975 25.305 16.2675
1908 1 21.69 27.1125 16.2675
1909 1 25.305 25.305 14.46
1910 1 27.1125 27.1125 14.46
1911 1 27.1125 25.305 16.2675
1912 1 25.305 27.1125 16.2675
1913 1 28.92 25.305 14.46
1914 1 30.7275 27.1125 14.46
1915 1 30.7275 25.305 16.2675
1916 1 28.92 27.1125 16.2675
1917 1 32.535 25.305 14.46
1918 1 34.3425 27.1125 14.46
1919 1 34.3425 25.305 16.2675
1920 1 32.535 27.1125 16.2675
1921 1 0 28.92 14.46
1922 1 1.8075 30.7275 14.46
1923 1 1.8075 28.92 16.2675
1924 1 0 30.7275 16.2675
1925 1 3.615 28.92 14.46
1926 1 5.4225 30.7275 14.46
1927 1 5.4225 28.92 16.2675
1928 1 3.615 30.7275 16.2675
1929 1 7.23 28.92 14.46
1930 1 9.0375 30.7275 14.46
1931 1 9.0375 28.92 16.2675
1932 1 7.23 30.7275 16.2675
1933 1 10.845 28.92 14.46
1934 1 12.6525 30.7275 14.46
1935 1 12.6525 28.92 16.2675
1936 1 10.845 30.7275 16.2675
1937 1 14.46 28.92 14.46
1938 1 16.2675 30.7275 14.46
1939 1 16.2675 28.92 16.2675
1940 1 14.46 30.7275 16.2675
1941 1 18.075 28.92 14.46
1942 1 19.8825 30.7275 14.46
1943 1 19.8825 28.92 16.2675
1944 1 18.075 30.7275 16.2675
1945 1 21.69 28.92 14.46
1946 1 23.4975 30.7275 14.46
1947 1 23.4975 28.92 16.2675
1948 1 21.69 30.7275 16.2675
1949 1 25.305 28.92 14.46
1950 1 27.1125 30.7275 14.46
1951 1 27.1125 28.92 16.2675
1952 1 25.305 30.7275 16.2675
1953 1 28.92 28.92 14.46
1954 1 30.7275 30.7275 14.46
1955 1 30.7275 28.92 16.2675
1956 1 28.92 30.7275 16.2675
1957 1 32.535 28.92 14.46
1958 1 34.3425 30.7275 14.46
1959 1 34.3425 28.92 16.2675
1960 1 32.535 30.7275 16.2675
1961 1 0 32.535 14.46
1962 1 1.8075 34.3425 14.46
1963 1 1.8075 32.535 16.2675
1964 1 0 34.3425 16.2675
1965 1 3.615 32.535 14.46
1966 1 5.4225 34.3425 14.46
1967 1 5.4225 32.535 16.2675
1968 1 3.615 34.3425 16.2675
1969 1 7.23 32.535 14.46
1970 1 9.0375 34.3425 14.46
1971 1 9.0375 32.535 16.2675
1972 1 7.23 34.3425 16.2675
1973 1 10.845 32.535 14.46
1974 1 12.6525 34.3425 14.46
1975 1 12.6525 32.535 16.2675
1976 1 10.845 34.3425 16.2675
1977 1 14.46 32.535 14.46
1978 1 16.2675 34.3425 14.46
1979 1 16.2675 32.535 16.2675
1980 1 14.46 34.3425 16.2675
1981 1 18.075 32.535 14.46
1982 1 19.8825 34.3425 14.46
1983 1 19.8825 32.535 16.2675
1984 1 18.075 34.3425 16.2675
1985 1 21.69 32.535 14.46
1986 1 23.4975 34.3425 14.46
1987 1 23.4975 32.535 16.2675
1988 1 21.69 34.3425 16.2675
1989 1 25.305 32.535 14.46
1990 1 27.1125 34.3425 14.46
1991 1 27.1125 32.535 16.2675
1992 1 25.305 34.3425 16.2675
1993 1 28.92 32.535 14.46
1994 1 30.7275 34.3425 14.46
1995 1 30.7275 32.535 16.2675
1996 1 28.92 34.3425 16.2675
1997 1 32.535 32.535 14.46
1998 1 34.3425 34.3425 14.46
1999 1 34.3425 32.535 16.2675
2000 1 32.535 34.3425 16.2675
2001 1 0 0 18.075
2002 1 1.8075 1.8075 18.075
2003 1 1.8075 0 19.8825
2004 1 0 1.8075 19.8825
2005 1 3.615 0 18.075
2006 1 5.4225 1.8075 18.075
2007 1 5.4225 0 19.8825
2008 1 3.615 1.8075 19.8825
2009 1 7.23 0 18.075
2010 1 9.0375 1.8075 18.075
2011 1 9.0375 0 19.8825
2012 1 7.23 1.8075 19.8825
2013 1 10.845 0 18.075
2014 1 12.6525 1.8075 18.075
2015 1 12.6525 0 19.8825
2016 1 10.845 1.8075 19.8825
2017 1 14.46 0 18.075
2018 1 16.2675 1.8075 18.075
2019 1 16.2675 0 19.8825
2020 1 14.46 1.8075 19.8825
2021 1 18.075 0 18.075
2022 1 19.8825 1.8075 18.075
2023 1 19.8825 0 19.8825
2024 1 18.075 1.8075 19.8825
2025 1 21.69 0 18.075
2026 1 23.4975 1.8075 18.075
2027 1 23.4975 0 19.8825
2028 1 21.69 1.8075 19.8825
2029 1 25.305 0 18.075
2030 1 27.1125 1.8075 18.075
2031 1 27.1125 0 19.8825
2032 1 25.305 1.8075 19.8825
2033 1 28.92 0 18.075
2034 1 30.7275 1.8075 18.075
2035 1 30.7275 0 19.8825
2036 1 28.92 1.8075 19.8825
2037 1 32.535 0 18.075
2038 1 34.3425 1.8075 18.075
2039 1 34.3425 0 19.8825
2040 1 32.535 1.8075 19.8825
2041 1 0 3.615 18.075
2042 1 1.8075 5.4225 18.075
2043 1 1.8075 3.615 19.8825
2044 1 0 5.4225 19.8825
2045 1 3.615 3.615 18.075
2046 1 5.4225 5.4225 18.075
2047 1 5.4225 3.615 19.8825
2048 1 3.615 5.4225 19.8825
2049 1 7.23 3.615 18.075
2050 1 9.0375 5.4225 18.075
2051 1 9.0375 3.615 19.8825
2052 1 7.23 5.4225 19.8825
2053 1 10.845 3.615 18.075
2054 1 12.6525 5.4225 18.075
2055 1 12.6525 3.615 19.8825
2056 1 10.845 5.4225 19.8825
2057 1 14.46 3.615 18.075
2058 1 16.2675 5.4225 18.075
2059 1 16.2675 3.615 19.8825
2060 1 14.46 5.4225 19.8825
2061 1 18.075 3.615 18.075
2062 1 19.8825 5.4225 18.075
2063 1 19.8825 3.615 19.8825
2064 1 18.075 5.4225 19.8825
2065 1 21.69 3.615 18.075
2066 1 23.4975 5.4225 18.075
2067 1 23.4975 3.615 19.8825
2068 1 21.69 5.4225 19.8825
2069 1 25.305 3.615 18.075
2070 1 27.1125 5.4225 18.075
2071 1 27.1125 3.615 19.8825
2072 1 25.305 5.4225 19.8825
2073 1 28.92 3.615 18.075
2074 1 30.7275 5.4225 18.075
2075 1 30.7275 3.615 19.8825
2076 1 28.92 5.4225 19.8825
2077 1 32.535 3.615 18.075
2078 1 34.3425 5.4225 18.075
2079 1 34.3425 3.615 19.8825
2080 1 32.535 5.4225 19.8825
2081 1 0 7.23 18.075
2082 1 1.8075 9.0375 18.075
2083 1 1.8075 7.23 19.8825
2084 1 0 9.0375 19.8825
2085 1 3.615 7.23 18.075
2086 1 5.4225 9.0375 18.075
2087 1 5.4225 7.23 19.8825
2088 1 3.615 9.0375 19.8825
2089 1 7.23 7.23 18.075
2090 1 9.0375 9.0375 18.075
2091 1 9.0375 7.23 19.8825
2092 1 7.23 9.0375 19.8825
2093 1 10.845 7.23 18.075
2094 1 12.6525 9.0375 18.075
2095 1 12.6525 7.23 19.8825
2096 1 10.845 9.0375 19.8825
2097 1 14.46 7.23 18.075
2098 1 16.2675 9.0375 18.075
2099 1 16.2675 7.23 19.8825
2100 1 14.46 9.0375 19.8825
2101 1 18.075 7.23 18.075
2102 1 19.8825 9.0375 18.075
2103 1 19.8825 7.23 19.8825
2104 1 18.075 9.0375 19.8825
2105 1 21.69 7.23 18.075
2106 1 23.4975 9.0375 18.075
2107 1 23.4975 7.23 19.8825
2108 1 21.69 9.0375 19.8825
2109 1 25.305 7.23 18.075
2110 1 27.1125 9.0375 18.075
2111 1 27.1125 7.23 19.8825
2112 1 25.305 9.0375 19.8825
2113 1 28.92 7.23 18.075
2114 1 30.7275 9.0375 18.075
2115 1 30.7275 7.23 19.8825
2116 1 28.92 9.0375 19.8825
2117 1 32.535 7.23 18.075
2118 1 34.3425 9.0375 18.075
2119 1 34.3425 7.23 19.8825
2120 1 32.535 9.0375 19.8825
2121 1 0 10.845 18.075
2122 1 1.8075 12.6525 18.075
2123 1 1.8075 10.845 19.8825
2124 1 0 12.6525 19.8825
2125 1 3.615 10.845 18.075
2126 1 5.4225 12.6525 18.075
2127 1 5.4225 10.845 19.8825
2128 1 3.615 12.6525 19.8825
2129 1 7.23 10.845 18.075
2130 1 9.0375 12.6525 18.075
2131 1 9.0375 10.845 19.8825
2132 1 7.23 12.6525 19.8825
2133 1 10.845 10.845 18.075
2134 1 12.6525 12.6525 18.075
2135 1 12.6525 10.845 19.8825
2136 1 10.845 12.6525 19.8825
2137 1 14.46 10.845 18.075
2138 1 16.2675 12.6525 18.075
2139 1 16.2675 10.845 19.8825
2140 1 14.46 12.6525 19.8825
2141 1 18.075 10.845 18.075
2142 1 19.8825 12.6525 18.075
2143 1 19.8825 10.845 19.8825
2144 1 18.075 12.6525 19.8825
2145 1 21.69 10.845 18.075
2146 1 23.4975 12.6525 18.075
2147 1 23.4975 10.845 19.8825
2148 1 21.69 12.6525 19.8825
2149 1 25.305 10.845 18.075
2150 1 27.1125 12.6525 18.075
2151 1 27.1125 10.845 19.8825
2152 1 25.305 12.6525 19.8825
2153 1 28.92 10.845 18.075
2154 1 30.7275 12.6525 18.075
2155 1 30.7275 10.845 19.8825
2156 1 28.92 12.6525 19.8825
2157 1 32.535 10.845 18.075
2158 1 34.3425 12.6525 18.075
2159 1 34.3425 10.845 19.8825
2160 1 32.535 12.6525 19.8825
2161 1 0 14.46 18.075
2162 1 1.8075 16.2675 18.075
2163 1 1.8075 14.46 19.8825
2164 1 0 16.2675 19.8825
2165 1 3.615 14.46 18.075
2166 1 5.4225 16.2675 18.075
2167 1 5.4225 14.46 19.8825
2168 1 3.615 16.2675 19.8825
2169 1 7.23 14.46 18.075
2170 1 9.0375 16.2675 18.075
2171 1 9.0375 14.46 19.8825
2172 1 7.23 16.2675 19.8825
2173 1 10.845 14.46 18.075
2174 1 12.6525 16.2675 18.075
2175 1 12.6525 14.46 19.8825
2176 1 10.845 16.2675 19.8825
2177 1 14.46 14.46 18.075
2178 1 16.2675 16.2675 18.075
2179 1 16.2675 14.46 19.8825
2180 1 14.46 16.2675 19.8825
2181 1 18.075 14.46 18.075
2182 1 19.8825 16.2675 18.075
2183 1 19.8825 14.46 19.8825
2184 1 18.075 16.2675 19.8825
2185 1 21.69 14.46 18.075
2186 1 23.4975 16.2675 18.075
2187 1 23.4975 14.46 19.8825
2188 1 21.69 16.2675 19.8825
2189 1 25.305 14.46 18.075
2190 1 27.1125 16.2675 18.075
2191 1 27.1125 14.46 19.8825
2192 1 25.305 16.2675 19.8825
2193 1 28.92 14.46 18.075
2194 1 30.7275 16.2675 18.075
2195 1 30.7275 14.46 19.8825
2196 1 28.92 16.2675 19.8825
2197 1 32.535 14.46 18.075
2198 1 34.3425 16.2675 18.075
2199 1 34.3425 14.46 19.8825
2200 1 32.535 16.2675 19.8825
2201 1 0 18.075 18.075
2202 1 1.8075 19.8825 18.075
2203 1 1.8075 18.075 19.8825
2204 1 0 19.8825 19.8825
2205 1 3.615 18.075 18.075
2206 1 5.4225 19.8825 18.075
2207 1 5.4225 18.075 19.8825
2208 1 3.615 19.8825 19.8825
2209 1 7.23 18.075 18.075
2210 1 9.0375 19.8825 18.075
2211 1 9.0375 18.075 19.8825
2212 1 7.23 19.8825 19.8825
2213 1 10.845 18.075 18.075
2214 1 12.6525 19.8825 18.075
2215 1 12.6525 18.075 19.8825
2216 1 10.845 19.8825 19.8825
2217 1 14.46 18.075 18.075
2218 1 16.2675 19.8825 18.075
2219 1 16.2675 18.075 19.8825
2220 1 14.46 19.8825 19.8825
2221 1 18.075 18.075 18.075
2222 1 19.8825 19.8825 18.075
2223 1 19.8825 18.075 19.8825
2224 1 18.075 19.8825 19.8825
2225 1 21.69 18.075 18.075
2226 1 23.4975 19.8825 18.075
2227 1 23.4975 18.075 19.8825
2228 1 21.69 19.8825 19.8825
2229 1 25.305 18.075 18.075
2230 1 27.1125 19.8825 18.075
2231 1 27.1125 18.075 19.8825
2232 1 25.305 19.8825 19.8825
2233 1 28.92 18.075 18.075
2234 1 30.7275 19.8825 18.075
2235 1 30.7275 18.075 19.8825
2236 1 28.92 19.8825 19.8825
2237 1 32.535 18.075 18.075
2238 1 34.3425 19.8825 18.075
2239 1 34.3425 18.075 19.8825
2240 1 32.535 19.8825 19.8825
2241 1 0 21.69 18.075
2242 1 1.8075 23.4975 18.075
2243 1 1.8075 21.69 19.8825
2244 1 0 23.4975 19.8825
2245 1 3.615 21.69 18.075
2246 1 5.4225 23.4975 18.075
2247 1 5.4225 21.69 19.8825
2248 1 3.615 23.4975 19.8825
2249 1 7.23 21.69 18.075
2250 1 9.0375 23.4975 18.075
2251 1 9.0375 21.69 19.8825
2252 1 7.23 23.4975 19.8825
2253 1 10.845 21.69 18.075
2254 1 12.6525 23.4975 18.075
2255 1 12.6525 21.69 19.8825
2256 1 10.845 23.4975 19.8825
2257 1 14.46 21.69 18.075
2258 1 16.2675 23.4975 18.075
2259 1 16.2675 21.69 19.8825
2260 1 14.46 23.4975 19.8825
2261 1 18.075 21.69 18.075
2262 1 19.8825 23.4975 18.075
2263 1 19.8825 21.69 19.8825
2264 1 18.075 23.4975 19.8825
2265 1 21.69 21.69 18.075
2266 1 23.4975 23.4975 18.075
2267 1 23.4975 21.69 19.8825
2268 1 21.69 23.4975 19.8825
2269 1 25.305 21.69 18.075
2270 1 27.1125 23.4975 18.075
2271 1 27.1125 21.69 19.8825
2272 1 25.305 23.4975 19.8825
2273 1 28.92 21.69 18.075
2274 1 30.7275 23.4975 18.075
2275 1 30.7275 21.69 19.8825
2276 1 28.92 23.4975 19.8825
2277 1 32.535 21.69 18.075
2278 1 34.3425 23.4975 18.075
2279 1 34.3425 21.69 19.8825
2280 1 32.535 23.4975 19.8825
2281 1 0 25.305 18.075
2282 1 1.8075 27.1125 18.075
2283 1 1.8075 25.305 19.8825
2284 1 0 27.1125 19.8825
2285 1 3.615 25.305 18.075
2286 1 5.4225 27.1125 18.075
2287 1 5.4225 25.305 19.8825
2288 1 3.615 27.1125 19.8825
2289 1 7.23 25.305 18.075
2290 1 9.0375 27.1125 18.075
2291 1 9.0375 25.305 19.8825
2292 1 7.23 27.1125 19.8825
2293 1 10.845 25.305 18.075
2294 1 12.6525 27.1125 18.075
2295 1 12.6525 25.305 19.8825
2296 1 10.845 27.1125 19.8825
2297 1 14.46 25.305 18.075
2298 1 16.2675 27.1125 18.075
2299 1 16.2675 25.305 19.8825
2300 1 14.46 27.1125 19.8825
2301 1 18.075 25.305 18.075
2302 1 19.8825 27.1125 18.075
2303 1 19.8825 25.305 19.8825
2304 1 18.075 27.1125 19.8825
2305 1 21.69 25.305 18.075
2306 1 23.4975 27.1125 18.075
2307 1 23.4975 25.305 19.8825
2308 1 21.69 27.1125 19.8825
2309 1 25.305 25.305 18.075
2310 1 27.1125 27.1125 18.075
2311 1 27.1125 25.305 19.8825
2312 1 25.305 27.1125 19.8825
2313 1 28.92 25.305 18.075
2314 1 30.7275 27.1125 18.075
2315 1 30.7275 25.305 19.8825
2316 1 28.92 27.1125 19.8825
2317 1 32.535 25.305 18.075
2318 1 34.3425 27.1125 18.075
2319 1 34.3425 25.305 19.8825
2320 1 32.535 27.1125 19.8825
2321 1 0 28.92 18.075
2322 1 1.8075 30.7275 18.075
2323 1 1.8075 28.92 19.8825
2324 1 0 30.7275 19.8825
2325 1 3.615 28.92 18.075
2326 1 5.4225 30.7275 18.075
2327 1 5.4225 28.92 19.8825
2328 1 3.615 30.7275 19.8825
2329 1 7.23 28.92 18.075
2330 1 9.0375 30.7275 18.075
2331 1 9.0375 28.92 19.8825
2332 1 7.23 30.7275 19.8825
2333 1 10.845 28.92 18.075
2334 1 12.6525 30.7275 18.075
2335 1 12.6525 28.92 19.8825
2336 1 10.845 30.7275 19.8825
2337 1 14.46 28.92 18.075
2338 1 16.2675 30.7275 18.075
2339 1 16.2675 28.92 19.8825
2340 1 14.46 30.7275 19.8825
2341 1 18.075 28.92 18.075
2342 1 19.8825 30.7275 18.075
2343 1 19.8825 28.92 19.8825
2344 1 18.075 30.7275 19.8825
2345 1 21.69 28.92 18.075
2346 1 23.4975 30.7275 18.075
2347 1 23.4975 28.92 19.8825
2348 1 21.69 30.7275 19.8825
2349 1 25.305 28.92 18.075
2350 1 27.1125 30.7275 18.075
2351 1 27.1125 28.92 19.8825
2352 1 25.305 30.7275 19.8825
2353 1 28.92 28.92 18.075
2354 1 30.7275 30.7275 18.075
2355 1 30.7275 28.92 19.8825
2356 1 28.92 30.7275 19.8825
2357 1 32.535 28.92 18.075
2358 1 34.3425 30.7275 18.075
2359 1 34.3425 28.92 19.8825
2360 1 32.535 30.7275 19.8825
2361 1 0 32.535 18.075
2362 1 1.8075 34.3425 18.075
2363 1 1.8075 32.535 19.8825
2364 1 0 34.3425 19.8825
2365 1 3.615 32.535 18.075
2366 1 5.4225 34.3425 18.075
2367 1 5.4225 32.535 19.8825
2368 1 3.615 34.3425 19.8825
2369 1 7.23 32.535 18.075
2370 1 9.0375 34.3425 18.075
2371 1 9.0375 32.535 19.8825
2372 1 7.23 34.3425 19.8825
2373 1 10.845 32.535 18.075
2374 1 12.6525 34.3425 18.075
2375 1 12.6525 32.535 19.8825
2376 1 10.845 34.3425 19.8825
2377 1 14.46 32.535 18.075
2378 1 16.2675 34.3425 18.075
2379 1 16.2675 32.535 19.8825
2380 1 14.46 34.3425 19.8825
2381 1 18.075 32.535 18.075
2382 1 19.8825 34.3425 18.075
2383 1 19.8825 32.535 19.8825
2384 1 18.075 34.3425 19.8825
2385 1 21.69 32.535 18.075
2386 1 23.4975 34.3425 18.075
2387 1 23.4975 32.535 19.8825
2388 1 21.69 34.3425 19.8825
2389 1 25.305 32.535 18.075
2390 1 27.1125 34.3425 18.075
2391 1 27.1125 32.535 19.8825
2392 1 25.305 34.3425 19.8825
2393 1 28.92 32.535 18.075
2394 1 30.7275 34.3425 18.075
2395 1 30.7275 32.535 19.8825
2396 1 28.92 34.3425 19.8825
2397 1 32.535 32.535 18.075
2398 1 34.3425 34.3425 18.075
2399 1 34.3425 32.535 19.8825
2400 1 32.535 34.3425 19.8825
2401 1 0 0 21.69
2402 1 1.8075 1.8075 21.69
2403 1 1.8075 0 23.4975
2404 1 0 1.8075 23.4975
2405 1 3.615 0 21.69
2406 1 5.4225 1.8075 21.69
2407 1 5.4225 0 23.4975
2408 1 3.615 1.8075 23.4975
2409 1 7.23 0 21.69
2410 1 9.0375 1.8075 21.69
2411 1 9.0375 0 23.4975
2412 1 7.23 1.8075 23.4975
2413 1 10.845 0 21.69
2414 1 12.6525 1.8075 21.69
2415 1 12.6525 0 23.4975
2416 1 10.845 1.8075 23.4975
2417 1 14.46 0 21.69
2418 1 16.2675 1.8075 21.69
2419 1 16.2675 0 23.4975
2420 1 14.46 1.8075 23.4975
2421 1 18.075 0 21.69
2422 1 19.8825 1.8075 21.69
2423 1 19.8825 0 23.4975
2424 1 18.075 1.8075 23.4975
2425 1 21.69 0 21.69
2426 1 23.4975 1.8075 21.69
2427 1 23.4975 0 23.4975
2428 1 21.69 1.8075 23.4975
2429 1 25.305 0 21.69
2430 1 27.1125 1.8075 21.69
2431 1 27.1125 0 23.4975
2432 1 25.305 1.8075 23.4975
2433 1 28.92 0 21.69
2434 1 30.7275 1.8075 21.69
2435 1 30.7275 0 23.4975
2436 1 28.92 1.8075 23.4975
2437 1 32.535 0 21.69
2438 1 34.3425 1.8075 21.69
2439 1 34.3425 0 23.4975
2440 1 32.535 1.8075 23.4975
2441 1 0 3.615 21.69
2442 1 1.8075 5.4225 21.69
2443 1 1.8075 3.615 23.4975
2444 1 0 5.4225 23.4975
2445 1 3.615 3.615 21.69
2446 1 5.4225 5.4225 21.69
2447 1 5.4225 3.615 23.4975
2448 1 3.615 5.4225 23.4975
2449 1 7.23 3.615 21.69
2450 1 9.0375 5.4225 21.69
2451 1 9.0375 3.615 23.4975
2452 1 7.23 5.4225 23.4975
2453 1 10.845 3.615 21.69
2454 1 12.6525 5.4225 21.69
2455 1 12.6525 3.615 23.4975
2456 1 10.845 5.4225 23.4975
2457 1 14.46 3.615 21.69
2458 1 16.2675 5.4225 21.69
2459 1 16.2675 3.615 23.4975
2460 1 14.46 5.4225 23.4975
2461 1 18.075 3.615 21.69
2462 1 19.8825 5.4225 21.69
2463 1 19.8825 3.615 23.4975
2464 1 18.075 5.4225 23.4975
2465 1 21.69 3.615 21.69
2466 1 23.4975 5.4225 21.69
2467 1 23.4975 3.615 23.4975
2468 1 21.69 5.4225 23.4975
2469 1 25.305 3.615 21.69
2470 1 27.1125 5.4225 21.69
2471 1 27.1125 3.615 23.4975
2472 1 25.305 5.4225 23.4975
2473 1 28.92 3.615 21.69
2474 1 30.7275 5.4225 21.69
2475 1 30.7275 3.615 23.4975
2476 1 28.92 5.4225 23.4975
2477 1 32.535 3.615 21.69
2478 1 34.3425 5.4225 21.69
2479 1 34.3425 3.615 23.4975
2480 1 32.535 5.4225 23.4975
2481 1 0 7.23 21.69
2482 1 1.8075 9.0375 21.69
2483 1 1.8075 7.23 23.4975
2484 1 0 9.0375 23.4975
2485 1 3.615 7.23 21.69
2486 1 5.4225 9.0375 21.69
2487 1 5.4225 7.23 23.4975
2488 1 3.615 9.0375 23.4975
2489 1 7.23 7.23 21.69
2490 1 9.0375 9.0375 21.69
2491 1 9.0375 7.23 23.4975
2492 1 7.23 9.0375 23.4975
2493 1 10.845 7.23 21.69
2494 1 12.6525 9.0375 21.69
2495 1 12.6525 7.23 23.4975
2496 1 10.845 9.0375 23.4975
2497 1 14.46 7.23 21.69
2498 1 16.2675 9.0375 21.69
2499 1 16.2675 7.23 23.4975
2500 1 14.46 9.0375 23.4975
2501 1 18.075 7.23 21.69
2502 1 19.8825 9.0375 21.69
2503 1 19.8825 7.23 23.4975
2504 1 18.075 9.0375 23.4975
2505 1 21.69 7.23 21.69
2506 1 23.4975 9.0375 21.69
2507 1 23.4975 7.23 23.4975
2508 1 21.69 9.0375 23.4975
2509 1 25.305 7.23 21.69
2510 1 27.1125 9.0375 21.69
2511 1 27.1125 7.23 23.4975
2512 1 25.305 9.0375 23.4975
2513 1 28.92 7.23 21.69
2514 1 30.7275 9.0375 21.69
2515 1 30.7275 7.23 23.4975
2516 1 28.92 9.0375 23.4975
2517 1 32.535 7.23 21.69
2518 1 34.3425 9.0375 21.69
2519 1 34.3425 7.23 23.4975
2520 1 32.535 9.0375 23.4975
2521 1 0 10.845 21.69
2522 1 1.8075 12.6525 21.69
2523 1 1.8075 10.845 23.4975
2524 1 0 12.6525 23.4975
2525 1 3.615 10.845 21.69
2526 1 5.4225 12.6525 21.69
2527 1 5.4225 10.845 23.4975
2528 1 3.615 12.6525 23.4975
2529 1 7.23 10.845 21.69
2530 1 9.0375 12.6525 21.69
2531 1 9.0375 10.845 23.4975
2532 1 7.23 12.6525 23.4975
2533 1 10.845 10.845 21.69
2534 1 12.6525 12.6525 21.69
2535 1 12.6525 10.845 23.4975
2536 1 10.845 12.6525 23.4975
2537 1 14.46 10.845 21.69
2538 1 16.2675 12.6525 21.69
2539 1 16.2675 10.845 23.4975
2540 1 14.46 12.6525 23.4975
2541 1 18.075 10.845 21.69
2542 1 19.8825 12.6525 21.69
2543 1 19.8825 10.845 23.4975
2544 1 18.075 12.6525 23.4975
2545 1 21.69 10.845 21.69
2546 1 23.4975 12.6525 21.69
2547 1 23.4975 10.845 23.4975
2548 1 21.69 12.6525 23.4975
2549 1 25.305 10.845 21.69
2550 1 27.1125 12.6525 21.69
2551 1 27.1125 10.845 23.4975
2552 1 25.305 12.6525 23.4975
2553 1 28.92 10.845 21.69
2554 1 30.7275 12.6525 21.69
2555 1 30.7275 10.845 23.4975
2556 1 28.92 12.6525 23.4975
2557 1 32.535 10.845 21.69
2558 1 34.3425 12.6525 21.69
2559 1 34.3425 10.845 23.4975
2560 1 32.535 12.6525 23.4975
2561 1 0 14.46 21.69
2562 1 1.8075 16.2675 21.69
2563 1 1.8075 14.46 23.4975
2564 1 0 16.2675 23.4975
2565 1 3.615 14.46 21.69
2566 1 5.4225 16.2675 21.69
2567 1 5.4225 14.46 23.4975
2568 1 3.615 16.2675 23.4975
2569 1 7.23 14.46 21.69
2570 1 9.0375 16.2675 21.69
2571 1 9.0375 14.46 23.4975
2572 1 7.23 16.2675 23.4975
2573 1 10.845 14.46 21.69
2574 1 12.6525 16.2675 21.69
2575 1 12.6525 14.46 23.4975
2576 1 10.845 16.2675 23.4975
2577 1 14.46 14.46 21.69
2578 1 16.2675 16.2675 21.69
2579 1 16.2675 14.46 23.4975
2580 1 14.46 16.2675 23.4975
2581 1 18.075 14.46 21.69
2582 1 19.8825 16.2675 21.69
2583 1 19.8825 14.46 23.4975
2584 1 18.075 16.2675 23.4975
2585 1 21.69 14.46 21.69
2586 1 23.4975 16.2675 21.69
2587 1 23.4975 14.46 23.4975
2588 1 21.69 16.2675 23.4975
2589 1 25.305 14.46 21.69
2590 1 27.1125 16.2675 21.69
2591 1 27.1125 14.46 23.4975
2592 1 25.305 16.2675 23.4975
2593 1 28.92 14.46 21.69
2594 1 30.7275 16.2675 21.69
2595 1 30.7275 14.46 23.4975
2596 1 28.92 16.2675 23.4975
2597 1 32.535 14.46 21.69
2598 1 34.3425 16.2675 21.69
2599 1 34.3425 14.46 23.4975
2600 1 32.535 16.2675 23.4975
2601 1 0 18.075 21.69
2602 1 1.8075 19.8825 21.69
2603 1 1.8075 18.075 23.4975
2604 1 0 19.8825 23.4975
2605 1 3.615 18.075 21.69
2606 1 5.4225 19.8825 21.69
2607 1 5.4225 18.075 23.4975
2608 1 3.615 19.8825 23.4975
2609 1 7.23 18.075 21.69
2610 1 9.0375 19.8825 21.69
2611 1 9.0375 18.075 23.4975
2612 1 7.23 19.8825 23.4975
2613 1 10.845 18.075 21.69
2614 1 12.6525 19.8825 21.69
2615 1 12.6525 18.075 23.4975
2616 1 10.845 19.8825 23.4975
2617 1 14.46 18.075 21.69
2618 1 16.2675 19.8825 21.69
2619 1 16.2675 18.075 23.4975
2620 1 14.46 19.8825 23.4975
2621 1 18.075 18.075 21.69
2622 1 19.8825 19.8825 21.69
2623 1 19.8825 18.075 23.4975
2624 1 18.075 19.8825 23.4975
2625 1 21.69 18.075 21.69
2626 1 23.4975 19.8825 21.69
2627 1 23.4975 18.075 23.4975
2628 1 21.69 19.8825 23.4975
2629 1 25.305 18.075 21.69
2630 1 27.1125 19.8825 21.69
2631 1 27.1125 18.075 23.4975
2632 1 25.305 19.8825 23.4975
2633 1 28.92 18.075 21.69
2634 1 30.7275 19.8825 21.69
2635 1 30.7275 18.075 23.4975
2636 1 28.92 19.8825 23.4975
2637 1 32.535 18.075 21.69
2638 1 34.3425 19.8825 21.69
2639 1 34.3425 18.075 23.4975
2640 1 32.535 19.8825 23.4975
2641 1 0 21.69 21.69
2642 1 1.8075 23.4975 21.69
2643 1 1.8075 21.69 23.4975
2644 1 0 23.4975 23.4975
2645 1 3.615 21.69 21.69
2646 1 5.4225 23.4975 21.69
2647 1 5.4225 21.69 23.4975
2648 1 3.615 23.4975 23.4975
2649 1 7.23 21.69 21.69
2650 1 9.0375 23.4975 21.69
2651 1 9.0375 21.69 23.4975
2652 1 7.23 23.4975 23.4975
2653 1 10.845 21.69 21.69
2654 1 12.6525 23.4975 21.69
2655 1 12.6525 21.69 23.4975
2656 1 10.845 23.4975 23.4975
2657 1 14.46 21.69 21.69
2658 1 16.2675 23.4975 21.69
2659 1 16.2675 21.69 23.4975
2660 1 14.46 23.4975 23.4975
2661 1 18.075 21.69 21.69
2662 1 19.8825 23.4975 21.69
2663 1 19.8825 21.69 23.4975
2664 1 18.075 23.4975 23.4975
2665 1 21.69 21.69 21.69
2666 1 23.4975 23.4975 21.69
2667 1 23.4975 21.69 23.4975
2668 1 21.69 23.4975 23.4975
2669 1 25.305 21.69 21.69
2670 1 27.1125 23.4975 21.69
2671 1 27.1125 21.69 23.4975
2672 1 25.305 23.4975 23.4975
2673 1 28.92 21.69 21.69
2674 1 30.7275 23.4975 21.69
2675 1 30.7275 21.69 23.4975
2676 1 28.92 23.4975 23.4975
2677 1 32.535 21.69 21.69
2678 1 34.3425 23.4975 21.69
2679 1 34.3425 21.69 23.4975
2680 1 32.535 23.4975 23.4975
2681 1 0 25.305 21.69
2682 1 1.8075 27.1125 21.69
2683 1 1.8075 25.305 23.4975
2684 1 0 27.1125 23.4975
2685 1 3.615 25.305 21.69
2686 1 5.4225 27.1125 21.69
2687 1 5.4225 25.305 23.4975
2688 1 3.615 27.1125 23.4975
2689 1 7.23 25.305 21.69
2690 1 9.0375 27.1125 21.69
2691 1 9.0375 25.305 23.4975
2692 1 7.23 27.1125 23.4975
2693 1 10.845 25.305 21.69
2694 1 12.6525 27.1125 21.69
2695 1 12.6525 25.305 23.4975
2696 1 10.845 27.1125 23.4975
2697 1 14.46 25.305 21.69
2698 1 16.2675 27.1125 21.69
2699 1 16.2675 25.305 23.4975
2700 1 14.46 27.1125 23.4975
2701 1 18.075 25.305 21.69
2702 1 19.8825 27.1125 21.69
2703 1 19.8825 25.305 23.4975
2704 1 18.075 27.1125 23.4975
2705 1 21.69 25.305 21.69
2706 1 23.4975 27.1125 21.69
2707 1 23.4975 25.305 23.4975
2708 1 21.69 27.1125 23.4975
2709 1 25.305 25.305 21.69
2710 1 27.1125 27.1125 21.69
2711 1 27.1125 25.305 23.4975
2712 1 25.305 27.1125 23.4975
2713 1 28.92 25.305 21.69
2714 1 30.7275 27.1125 21.69
2715 1 30.7275 25.305 23.4975
2716 1 28.92 27.1125 23.4975
2717 1 32.535 25.305 21.69
2718 1 34.3425 27.1125 21.69
2719 1 34.3425 25.305 23.4975
2720 1 32.535 27.1125 23.4975
2721 1 0 28.92 21.69
2722 1 1.8075 30.7275 21.69
2723 1 1.8075 28.92 23.4975
2724 1 0 30.7275 23.4975
2725 1 3.615 28.92 21.69
2726 1 5.4225 30.7275 21.69
2727 1 5.4225 28.92 23.4975
2728 1 3.615 30.7275 23.4975
2729 1 7.23 28.92 21.69
2730 1 9.0375 30.7275 21.69
2731 1 9.0375 28.92 23.4975
2732 1 7.23 30.7275 23.4975
2733 1 10.845 28.92 21.69
2734 1 12.6525 30.7275 21.69
2735 1 12.6525 28.92 23.4975
2736 1 10.845 30.7275 23.4975
2737 1 14.46 28.92 21.69
2738 1 16.2675 30.7275 21.69
2739 1 16.2675 28.92 23.4975
2740 1 14.46 30.7275 23.4975
2741 1 18.075 28.92 21.69
2742 1 19.8825 30.7275 21.69
2743 1 19.8825 28.92 23.4975
2744 1 18.075 30.7275 23.4975
2745 1 21.69 28.92 21.69
2746 1 23.4975 30.7275 21.69
2747 1 23.4975 28.92 23.4975
2748 1 21.69 30.7275 23.4975
2749 1 25.305 28.92 21.69
2750 1 27.1125 30.7275 21.69
2751 1 27.1125 28.92 23.4975
2752 1 25.305 30.7275 23.4975
2753 1 28.92 28.92 21.69
2754 1 30.7275 30.7275 21.69
2755 1 30.7275 28.92 23.4975
2756 1 28.92 30.7275 23.4975
2757 1 32.535 28.92 21.69
2758 1 34.3425 30.7275 21.69
2759 1 34.3425 28.92 23.4975
2760 1 32.535 30.7275 23.4975
2761 1 0 32.535 21.69
2762 1 1.8075 34.3425 21.69
2763 1 1.8075 32.535 23.4975
2764 1 0 34.3425 23.4975
2765 1 3.615 32.535 21.69
2766 1 5.4225 34.3425 21.69
2767 1 5.4225 32.535 23.4975
2768 1 3.615 34.3425 23.4975
2769 1 7.23 32.535 21.69
2770 1 9.0375 34.3425 21.69
2771 1 9.0375 32.535 23.4975
2772 1 7.23 34.3425 23.4975
2773 1 10.845 32.535 21.69
2774 1 12.6525 34.3425 21.69
2775 1 12.6525 32.535 23.4975
2776 1 10.845 34.3425 23.4975
2777 1 14.46 32.535 21.69
2778 1 16.2675 34.3425 21.69
2779 1 16.2675 32.535 23.4975
2780 1 14.46 34.3425 23.4975
2781 1 18.075 32.535 21.69
2782 1 19.8825 34.3425 21.69
2783 1 19.8825 32.535 23.4975
2784 1 18.075 34.3425 23.4975
2785 1 21.69 32.535 21.69
2786 1 23.4975 34.3425 21.69
2787 1 23.4975 32.535 23.4975
2788 1 21.69 34.3425 23.4975
2789 1 25.305 32.535 21.69
2790 1 27.1125 34.3425 21.69
2791 1 27.1125 32.535 23.4975
2792 1 25.305 34.3425 23.4975
2793 1 28.92 32.535 21.69
2794 1 30.7275 34.3425 21.69
2795 1 30.7275 32.535 23.4975
2796 1 28.92 34.3425 23.4975
2797 1 32.535 32.535 21.69
2798 1 34.3425 34.3425 21.69
2799 1 34.3425 32.535 23.4975
2800 1 32.535 34.3425 23.4975
2801 1 0 0 25.305
2802 1 1.8075 1.8075 25.305
2803 1 1.8075 0 27.1125
2804 1 0 1.8075 27.1125
2805 1 3.615 0 25.305
2806 1 5.4225 1.8075 25.305
2807 1 5.4225 0 27.1125
2808 1 3.615 1.8075 27.1125
2809 1 7.23 0 25.305
2810 1 9.0375 1.8075 25.305
2811 1 9.0375 0 27.1125
2812 1 7.23 1.8075 27.1125
2813 1 10.845 0 25.305
2814 1 12.6525 1.8075 25.305
2815 1 12.6525 0 27.1125
2816 1 10.845 1.8075 27.1125
2817 1 14.46 0 25.305
2818 1 16.2675 1.8075 25.305
2819 1 16.2675 0 27.1125
2820 1 14.46 1.8075 27.1125
2821 1 18.075 0 25.305
2822 1 19.8825 1.8075 25.305
2823 1 19.8825 0 27.1125
2824 1 18.075 1.8075 27.1125
2825 1 21.69 0 25.305
2826 1 23.4975 1.8075 25.305
2827 1 23.4975 0 27.1125
2828 1 21.69 1.8075 27.1125
2829 1 25.305 0 25.305
2830 1 27.1125 1.8075 25.305
2831 1 27.1125 0 27.1125
2832 1 25.305 1.8075 27.1125
2833 1 28.92 0 25.305
2834 1 30.7275 1.8075 25.305
2835 1 30.7275 0 27.1125
2836 1 28.92 1.8075 27.1125
2837 1 32.535 0 25.305
2838 1 34.3425 1.8075 25.305
2839 1 34.3425 0 27.1125
2840 1 32.535 1.8075 27.1125
2841 1 0 3.615 25.305
2842 1 1.8075 5.4225 25.305
2843 1 1.8075 3.615 27.1125
2844 1 0 5.4225 27.1125
2845 1 3.615 3.615 25.305
2846 1 5.4225 5.4225 25.305
2847 1 5.4225 3.615 27.1125
2848 1 3.615 5.4225 27.1125
2849 1 7.23 3.615 25.305
2850 1 9.0375 5.4225 25.305
2851 1 9.0375 3.615 27.1125
2852 1 7.23 5.4225 27.1125
2853 1 10.845 3.615 25.305
2854 1 12.6525 5.4225 25.305
2855 1 12.6525 3.615 27.1125
2856 1 10.845 5.4225 27.1125
2857 1 14.46 3.615 25.305
2858 1 16.2675 5.4225 25.305
2859 1 16.2675 3.615 27.1125
2860 1 14.46 5.4225 27.1125
2861 1 18.075 3.615 25.305
2862 1 19.8825 5.4225 25.305
2863 1 19.8825 3.615 27.1125
2864 1 18.075 5.4225 27.1125
2865 1 21.69 3.615 25.305
2866 1 23.4975 5.4225 25.305
2867 1 23.4975 3.615 27.1125
2868 1 21.69 5.4225 27.1125
2869 1 25.305 3.615 25.305
2870 1 27.1125 5.4225 25.305
2871 1 27.1125 3.615 27.1125
2872 1 25.305 5.4225 27.1125
2873 1 28.92 3.615 25.305
2874 1 30.7275 5.4225 25.305
2875 1 30.7275 3.615 27.1125
2876 1 28.92 5.4225 27.1125
2877 1 32.535 3.615 25.305
2878 1 34.3425 5.4225 25.305
2879 1 34.3425 3.615 27.1125
2880 1 32.535 5.4225 27.1125
2881 1 0 7.23 25.305
2882 1 1.8075 9.0375 25.305
2883 1 1.8075 7.23 27.1125
2884 1 0 9.0375 27.1125
2885 1 3.615 7.23 25.305
2886 1 5.4225 9.0375 25.305
2887 1 5.4225 7.23 27.1125
2888 1 3.615 9.0375 27.1125
2889 1 7.23 7.23 25.305
2890 1 9.0375 9.0375 25.305
2891 1 9.0375 7.23 27.1125
2892 1 7.23 9.0375 27.1125
2893 1 10.845 7.23 25.305
2894 1 12.6525 9.0375 25.305
2895 1 12.6525 7.23 27.1125
2896 1 10.845 9.0375 27.1125
2897 1 14.46 7.23 25.305
2898 1 16.2675 9.0375 25.305
2899 1 16.2675 7.23 27.1125
2900 1 14.46 9.0375 27.1125
2901 1 18.075 7.23 25.305
2902 1 19.8825 9.0375 25.305
2903 1 19.8825 7.23 27.1125
2904 1 18.075 9.0375 27.1125
2905 1 21.69 7.23 25.305
2906 1 23.4975 9.0375 25.305
2907 1 23.4975 7.23 27.1125
2908 1 21.69 9.0375 27.1125
2909 1 25.305 7.23 25.305
2910 1 27.1125 9.0375 25.305
2911 1 27.1125 7.23 27.1125
2912 1 25.305 9.0375 27.1125
2913 1 28.92 7.23 25.305
2914 1 30.7275 9.0375 25.305
2915 1 30.7275 7.23 27.1125
2916 1 28.92 9.0375 27.1125
2917 1 32.535 7.23 25.305
2918 1 34.3425 9.0375 25.305
2919 1 34.3425 7.23 27.1125
2920 1 32.535 9.0375 27.1125
2921 1 0 10.845 25.305
2922 1 1.8075 12.6525 25.305
2923 1 1.8075 10.845 27.1125
2924 1 0 12.6525 27.1125
2925 1 3.615 10.845 25.305
2926 1 5.4225 12.6525 25.305
2927 1 5.4225 10.845 27.1125
2928 1 3.615 12.6525 27.1125
2929 1 7.23 10.845 25.305
2930 1 9.0375 12.6525 25.305
2931 1 9.0375 10.845 27.1125
2932 1 7.23 12.6525 27.1125
2933 1 10.845 10.845 25.305
2934 1 12.6525 12.6525 25.305
2935 1 12.6525 10.845 27.1125
2936 1 10.845 12.6525 27.1125
2937 1 14.46 10.845 25.305
2938 1 16.2675 12.6525 25.305
2939 1 16.2675 10.845 27.1125
2940 1 14.46 12.6525 27.1125
2941 1 18.075 10.845 25.305
2942 1 19.8825 12.6525 25.305
2943 1 19.8825 10.845 27.1125
2944 1 18.075 12.6525 27.1125
2945 1 21.69 10.845 25.305
2946 1 23.4975 12.6525 25.305
2947 1 23.4975 10.845 27.1125
2948 1 21.69 12.6525 27.1125
2949 1 25.305 10.845 25.305
2950 1 27.1125 12.6525 25.305
2951 1 27.1125 10.845 27.1125
2952 1 25.305 12.6525 27.1125
2953 1 28.92 10.845 25.305
2954 1 30.7275 12.6525 25.305
2955 1 30.7275 10.845 27.1125
2956 1 28.92 12.6525 27.1125
2957 1 32.535 10.845 25.305
2958 1 34.3425 12.6525 25.305
2959 1 34.3425 10.845 27.1125
2960 1 32.535 12.6525 27.1125
2961 1 0 14.46 25.305
2962 1 1.8075 16.2675 25.305
2963 1 1.8075 14.46 27.1125
2964 1 0 16.2675 27.1125
2965 1 3.615 14.46 25.305
2966 1 5.4225 16.2675 25.305
2967 1 5.4225 14.46 27.1125
2968 1 3.615 16.2675 27.1125
2969 1 7.23 14.46 25.305
2970 1 9.0375 16.2675 25.305
2971 1 9.0375 14.46 27.1125
2972 1 7.23 16.2675 27.1125
2973 1 10.845 14.46 25.305
2974 1 12.6525 16.2675 25.305
2975 1 12.6525 14.46 27.1125
2976 1 10.845 16.2675 27.1125
2977 1 14.46 14.46 25.305
2978 1 16.2675 16.2675 25.305
2979 1 16.2675 14.46 27.1125
2980 1 14.46 16.2675 27.1125
2981 1 18.075 14.46 25.305
2982 1 19.8825 16.2675 25.305
2983 1 19.8825 14.46 27.1125
2984 1 18.075 16.2675 27.1125
2985 1 21.69 14.46 25.305
2986 1 23.4975 16.2675 25.305
2987 1 23.4975 14.46 27.1125
2988 1 21.69 16.2675 27.1125
2989 1 25.305 14.46 25.305
2990 1 27.1125 16.2675 25.305
2991 1 27.1125 14.46 27.1125
2992 1 25.305 16.2675 27.1125
2993 1 28.92 14.46 25.305
2994 1 30.7275 16.2675 25.305
2995 1 30.7275 14.46 27.1125
2996 1 28.92 16.2675 27.1125
2997 1 32.535 14.46 25.305
2998 1 34.3425 16.2675 25.305
2999 1 34.3425 14.46 27.1125
3000 1 32.535 16.2675 27.1125
3001 1 0 18.075 25.305
3002 1 1.8075 19.8825 25.305
3003 1 1.8075 18.075 27.1125
3004 1 0 19.8825 27.1125
3005 1 3.615 18.075 25.305
3006 1 5.4225 19.8825 25.305
3007 1 5.4225 18.075 27.1125
3008 1 3.615 19.8825 27.1125
3009 1 7.23 18.075 25.305
3010 1 9.0375 19.8825 25.305
3011 1 9.0375 18.075 27.1125
3012 1 7.23 19.8825 27.1125
3013 1 10.845 18.075 25.305
3014 1 12.6525 19.8825 25.305
3015 1 12.6525 18.075 27.1125
3016 1 10.845 19.8825 27.1125
3017 1 14.46 18.075 25.305
3018 1 16.2675 19.8825 25.305
3019 1 16.2675 18.075 27.1125
3020 1 14.46 19.8825 27.1125
3021 1 18.075 18.075 25.305
3022 1 19.8825 19.8825 25.305
3023 1 19.8825 18.075 27.1125
3024 1 18.075 19.8825 27.1125
3025 1 21.69 18.075 25.305
3026 1 23.4975 19.8825 25.305
3027 1 23.4975 18.075 27.1125
3028 1 21.69 19.8825 27.1125
3029 1 25.305 18.075 25.305
3030 1 27.1125 19.8825 25.305
3031 1 27.1125 18.075 27.1125
3032 1 25.305 19.8825 27.1125
3033 1 28.92 18.075 25.305
3034 1 30.7275 19.8825 25.305
3035 1 30.7275 18.075 27.1125
3036 1 28.92 19.8825 27.1125
3037 1 32.535 18.075 25.305
3038 1 34.3425 19.8825 25.305
3039 1 34.3425 18.075 27.1125
3040 1 32.535 19.8825 27.1125
3041 1 0 21.69 25.305
3042 1 1.8075 23.4975 25.305
3043 1 1.8075 21.69 27.1125
3044 1 0 23.4975 27.1125
3045 1 3.615 21.69 25.305
3046 1 5.4225 23.4975 25.305
3047 1 5.4225 21.69 27.1125
3048 1 3.615 23.4975 27.1125
3049 1 7.23 21.69 25.305
3050 1 9.0375 23.4975 25.305
3051 1 9.0375 21.69 27.1125
3052 1 7.23 23.4975 27.1125
3053 1 10.845 21.69 25.305
3054 1 12.6525 23.4975 25.305
3055 1 12.6525 21.69 27.1125
3056 1 10.845 23.4975 27.1125
3057 1 14.46 21.69 25.305
3058 1 16.2675 23.4975 25.305
3059 1 16.2675 21.69 27.1125
3060 1 14.46 23.4975 27.1125
3061 1 18.075 21.69 25.305
3062 1 19.8825 23.4975 25.305
3063 1 19.8825 21.69 27.1125
3064 1 18.075 23.4975 27.1125
3065 1 21.69 21.69 25.305
3066 1 23.4975 23.4975 25.305
3067 1 23.4975 21.69 27.1125
3068 1 21.69 23.4975 27.1125
3069 1 25.305 21.69 25.305
3070 1 27.1125 23.4975 25.305
3071 1 27.1125 21.69 27.1125
3072 1 25.305 23.4975 27.1125
3073 1 28.92 21.69 25.305
3074 1 30.7275 23.4975 25.305
3075 1 30.7275 21.69 27.1125
3076 1 28.92 23.4975 27.1125
3077 1 32.535 21.69 25.305
3078 1 34.3425 23.4975 25.305
3079 1 34.3425 21.69 27.1125
3080 1 32.535 23.4975 27.1125
3081 1 0 25.305 25.305
3082 1 1.8075 27.1125 25.305
3083 1 1.8075 25.305 27.1125
3084 1 0 27.1125 27.1125
3085 1 3.615 25.305 25.305
3086 1 5.4225 27.1125 25.305
3087 1 5.4225 25.305 27.1125
3088 1 3.615 27.1125 27.1125
3089 1 7.23 25.305 25.305
3090 1 9.0375 27.1125 25.305
3091 1 9.0375 25.305 27.1125
3092 1 7.23 27.1125 27.1125
3093 1 10.845 25.305 25.305
3094 1 12.6525 27.1125 25.305
3095 1 12.6525 25.305 27.1125
3096 1 10.845 27.1125 27.1125
3097 1 14.46 25.305 25.305
3098 1 16.2675 27.1125 25.305
3099 1 16.2675 25.305 27.1125
3100 1 14.46 27.1125 27.1125
3101 1 18.075 25.305 25.305
3102 1 19.8825 27.1125 25.305
3103 1 19.8825 25.305 27.1125
3104 1 18.075 27.1125 27.1125
3105 1 21.69 25.305 25.305
3106 1 23.4975 27.1125 25.305
3107 1 23.4975 25.305 27.1125
3108 1 21.69 27.1125 27.1125
3109 1 25.305 25.305 25.305
3110 1 27.1125 27.1125 25.305
3111 1 27.1125 25.305 27.1125
3112 1 25.305 27.1125 27.1125
3113 1 28.92 25.305 25.305
3114 1 30.7275 27.1125 25.305
3115 1 30.7275 25.305 27.1125
3116 1 28.92 27.1125 27.1125
3117 1 32.535 25.305 25.305
3118 1 34.3425 27.1125 25.305
3119 1 34.3425 25.305 27.1125
3120 1 32.535 27.1125 27.1125
3121 1 0 28.92 25.305
3122 1 1.8075 30.7275 25.305
3123 1 1.8075 28.92 27.1125
3124 1 0 30.7275 27.1125
3125 1 3.615 28.92 25.305
3126 1 5.4225 30.7275 25.305
3127 1 5.4225 28.92 27.1125
3128 1 3.615 30.7275 27.1125
3129 1 7.23 28.92 25.305
3130 1 9.0375 30.7275 25.305
3131 1 9.0375 28.92 27.1125
3132 1 7.23 30.7275 27.1125
3133 1 10.845 28.92 25.305
3134 1 12.6525 30.7275 25.305
3135 1 12.6525 28.92 27.1125
3136 1 10.845 30.7275 27.1125
3137 1 14.46 28.92 25.305
3138 1 16.2675 30.7275 25.305
3139 1 16.2675 28.92 27.1125
3140 1 14.46 30.7275 27.1125
3141 1 18.075 28.92 25.305
3142 1 19.8825 30.7275 25.305
3143 1 19.8825 28.92 27.1125
3144 1 18.075 30.7275 27.1125
3145 1 21.69 28.92 25.305
3146 1 23.4975 30.7275 25.305
3147 1 23.4975 28.92 27.1125
3148 1 21.69 30.7275 27.1125
3149 1 25.305 28.92 25.305
3150 1 27.1125 30.7275 25.305
3151 1 27.1125 28.92 27.1125
3152 1 25.305 30.7275 27.1125
3153 1 28.92 28.92 25.305
3154 1 30.7275 30.7275 25.305
3155 1 30.7275 28.92 27.1125
3156 1 28.92 30.7275 27.1125
3157 1 32.535 28.92 25.305
3158 1 34.3425 30.7275 25.305
3159 1 34.3425 28.92 27.1125
3160 1 32.535 30.7275 27.1125
3161 1 0 32.535 25.305
3162 1 1.8075 34.3425 25.305
3163 1 1.8075 32.535 27.1125
3164 1 0 34.3425 27.1125
3165 1 3.615 32.535 25.305
3166 1 5.4225 34.3425 25.305
3167 1 5.4225 32.535 27.1125
3168 1 3.615 34.3425 27.1125
3169 1 7.23 32.535 25.305
3170 1 9.0375 34.3425 25.305
3171 1 9.0375 32.535 27.1125
3172 1 7.23 34.3425 27.1125
3173 1 10.845 32.535 25.305
3174 1 12.6525 34.3425 25.305
3175 1 12.6525 32.535 27.1125
3176 1 10.845 34.3425 27.1125
3177 1 14.46 32.535 25.305
3178 1 16.2675 34.3425 25.305
3179 1 16.2675 32.535 27.1125
3180 1 14.46 34.3425 27.1125
3181 1 18.075 32.535 25.305
3182 1 19.8825 34.3425 25.305
3183 1 19.8825 32.535 27.1125
3184 1 18.075 34.3425 27.1125
3185 1 21.69 32.535 25.305
3186 1 23.4975 34.3425 25.305
3187 1 23.4975 32.535 27.1125
3188 1 21.69 34.3425 27.1125
3189 1 25.305 32.535 25.305
3190 1 27.1125 34.3425 25.305
3191 1 27.1125 32.535 27.1125
3192 1 25.305 34.3425 27.1125
3193 1 28.92 32.535 25.305
3194 1 30.7275 34.3425 25.305
3195 1 30.7275 32.535 27.1125
3196 1 28.92 34.3425 27.1125
3197 1 32.535 32.535 25.305
3198 1 34.3425 34.3425 25.305
3199 1 34.3425 32.535 27.1125
3200 1 32.535 34.3425 27.1125
3201 1 0 0 28.92
3202 1 1.8075 1.8075 28.92
3203 1 1.8075 0 30.7275
3204 1 0 1.8075 30.7275
3205 1 3.615 0 28.92
3206 1 5.4225 1.8075 28.92
3207 1 5.4225 0 30.7275
3208 1 3.615 1.8075 30.7275
3209 1 7.23 0 28.92
3210 1 9.0375 1.8075 28.92
3211 1 9.0375 0 30.7275
3212 1 7.23 1.8075 30.7275
3213 1 10.845 0 28.92
3214 1 12.6525 1.8075 28.92
3215 1 12.6525 0 30.7275
3216 1 10.845 1.8075 30.7275
3217 1 14.46 0 28.92
3218 1 16.2675 1.8075 28.92
3219 1 16.2675 0 30.7275
3220 1 14.46 1.8075 30.7275
3221 1 18.075 0 28.92
3222 1 19.8825 1.8075 28.92
3223 1 19.8825 0 30.7275
3224 1 18.075 1.8075 30.7275
3225 1 21.69 0 28.92
3226 1 23.4975 1.8075 28.92
3227 1 23.4975 0 30.7275
3228 1 21.69 1.8075 30.7275
3229 1 25.305 0 28.92
3230 1 27.1125 1.8075 28.92
3231 1 27.1125 0 30.7275
3232 1 25.305 1.8075 30.7275
3233 1 28.92 0 28.92
3234 1 30.7275 1.8075 28.92
3235 1 30.7275 0 30.7275
3236 1 28.92 1.8075 30.7275
3237 1 32.535 0 28.92
3238 1 34.3425 1.8075 28.92
3239 1 34.3425 0 30.7275
3240 1 32.535 1.8075 30.7275
3241 1 0 3.615 28.92
3242 1 1.8075 5.4225 28.92
3243 1 1.8075 3.615 30.7275
3244 1 0 5.4225 30.7275
3245 1 3.615 3.615 28.92
3246 1 5.4225 5.4225 28.92
3247 1 5.4225 3.615 30.7275
3248 1 3.615 5.4225 30.7275
3249 1 7.23 3.615 28.92
3250 1 9.0375 5.4225 28.92
3251 1 9.0375 3.615 30.7275
3252 1 7.23 5.4225 30.7275
3253 1 10.845 3.615 28.92
3254 1 12.6525 5.4225 28.92
3255 1 12.6525 3.615 30.7275
3256 1 10.845 5.4225 30.7275
3257 1 14.46 3.615 28.92
3258 1 16.2675 5.4225 28.92
3259 1 16.2675 3.615 30.7275
3260 1 14.46 5.4225 30.7275
3261 1 18.075 3.615 28.92
3262 1 19.8825 5.4225 28.92
3263 1 19.8825 3.615 30.7275
3264 1 18.075 5.4225 30.7275
3265 1 21.69 3.615 28.92
3266 1 23.4975 5.4225 28.92
3267 1 23.4975 3.615 30.7275
3268 1 21.69 5.4225 30.7275
3269 1 25.305 3.615 28.92
3270 1 27.1125 5.4225 28.92
3271 1 27.1125 3.615 30.7275
3272 1 25.305 5.4225 30.7275
3273 1 28.92 3.615 28.92
3274 1 30.7275 5.4225 28.92
3275 1 30.7275 3.615 30.7275
3276 1 28.92 5.4225 30.7275
3277 1 32.535 3.615 28.92
3278 1 34.3425 5.4225 28.92
3279 1 34.3425 3.615 30.7275
3280 1 32.535 5.4225 30.7275
3281 1 0 7.23 28.92
3282 1 1.8075 9.0375 28.92
3283 1 1.8075 7.23 30.7275
3284 1 0 9.0375 30.7275
3285 1 3.615 7.23 28.92
3286 1 5.4225 9.0375 28.92
3287 1 5.4225 7.23 30.7275
3288 1 3.615 9.0375 30.7275
3289 1 7.23 7.23 28.92
3290 1 9.0375 9.0375 28.92
3291 1 9.0375 7.23 30.7275
3292 1 7.23 9.0375 30.7275
3293 1 10.845 7.23 28.92
3294 1 12.6525 9.0375 28.92
3295 1 12.6525 7.23 30.7275
3296 1 10.845 9.0375 30.7275
3297 1 14.46 7.23 28.92
3298 1 16.2675 9.0375 28.92
3299 1 16.2675 7.23 30.7275
3300 1 14.46 9.0375 30.7275
3301 1 18.075 7.23 28.92
3302 1 19.8825 9.0375 28.92
3303 1 19.8825 7.23 30.7275
3304 1 18.075 9.0375 30.7275
3305 1 21.69 7.23 28.92
3306 1 23.4975 9.0375 28.92
3307 1 23.4975 7.23 30.7275
3308 1 21.69 9.0375 30.7275
3309 1 25.305 7.23 28.92
3310 1 27.1125 9.0375 28.92
3311 1 27.1125 7.23 30.7275
3312 1 25.305 9.0375 30.7275
3313 1 28.92 7.23 28.92
3314 1 30.7275 9.0375 28.92
3315 1 30.7275 7.23 30.7275
3316 1 28.92 9.0375 30.7275
3317 1 32.535 7.23 28.92
3318 1 34.3425 9.0375 28.92
3319 1 34.3425 7.23 30.7275
3320 1 32.535 9.0375 30.7275
3321 1 0 10.845 28.92
3322 1 1.8075 12.6525 28.92
3323 1 1.8075 10.845 30.7275
3324 1 0 12.6525 30.7275
3325 1 3.615 10.845 28.92
3326 1 5.4225 12.6525 28.92
3327 1 5.4225 10.845 30.7275
3328 1 3.615 12.6525 30.7275
3329 1 7.23 10.845 28.92
3330 1 9.0375 12.6525 28.92
3331 1 9.0375 10.845 30.7275
3332 1 7.23 12.6525 30.7275
3333 1 10.845 10.845 28.92
3334 1 12.6525 12.6525 28.92
3335 1 12.6525 10.845 30.7275
3336 1 10.845 12.6525 30.7275
3337 1 14.46 10.845 28.92
3338 1 16.2675 12.6525 28.92
3339 1 16.2675 10.845 30.7275
3340 1 14.46 12.6525 30.7275
3341 1 18.075 10.845 28.92
3342 1 19.8825 12.6525 28.92
3343 1 19.8825 10.845 30.7275
3344 1 18.075 12.6525 30.7275
3345 1 21.69 10.845 28.92
3346 1 23.4975 12.6525 28.92
3347 1 23.4975 10.845 30.7275
3348 1 21.69 12.6525 30.7275
3349 1 25.305 10.845 28.92
3350 1 27.1125 12.6525 28.92
3351 1 27.1125 10.845 30.7275
3352 1 25.305 12.6525 30.7275
3353 1 28.92 10.845 28.92
3354 1 30.7275 12.6525 28.92
3355 1 30.7275 10.845 30.7275
3356 1 28.92 12.6525 30.7275
3357 1 32.535 10.845 28.92
3358 1 34.3425 12.6525 28.92
3359 1 34.3425 10.845 30.7275
3360 1 32.535 12.6525 30.7275
3361 1 0 14.46 28.92
3362 1 1.8075 16.2675 28.92
3363 1 1.8075 14.46 30.7275
3364 1 0 16.2675 30.7275
3365 1 3.615 14.46 28.92
3366 1 5.4225 16.2675 28.92
3367 1 5.4225 14.46 30.7275
3368 1 3.615 16.2675 30.7275
3369 1 7.23 14.46 28.92
3370 1 9.0375 16.2675 28.92
3371 1 9.0375 14.46 30.7275
3372 1 7.23 16.2675 30.7275
3373 1 10.845 14.46 28.92
3374 1 12.6525 16.2675 28.92
3375 1 12.6525 14.46 30.7275
3376 1 10.845 16.2675 30.7275
3377 1 14.46 14.46 28.92
3378 1 16.2675 16.2675 28.92
3379 1 16.2675 14.46 30.7275
3380 1 14.46 16.2675 30.7275
3381 1 18.075 14.46 28.92
3382 1 19.8825 16.2675 28.92
3383 1 19.8825 14.46 30.7275
3384 1 18.075 16.2675 30.7275
3385 1 21.69 14.46 28.92
3386 1 23.4975 16.2675 28.92
3387 1 23.4975 14.46 30.7275
3388 1 21.69 16.2675 30.7275
3389 1 25.305 14.46 28.92
3390 1 27.1125 16.2675 28.92
3391 1 27.1125 14.46 30.7275
3392 1 25.305 16.2675 30.7275
3393 1 28.92 14.46 28.92
3394 1 30.7275 16.2675 28.92
3395 1 30.7275 14.46 30.7275
3396 1 28.92 16.2675 30.7275
3397 1 32.535 14.46 28.92
3398 1 34.3425 16.2675 28.92
3399 1 34.3425 14.46 30.7275
3400 1 32.535 16.2675 30.7275
3401 1 0 18.075 28.92
3402 1 1.8075 19.8825 28.92
3403 1 1.8075 18.075 30.7275
3404 1 0 19.8825 30.7275
3405 1 3.615 18.075 28.92
3406 1 5.4225 19.8825 28.92
3407 1 5.4225 18.075 30.7275
3408 1 3.615 19.8825 30.7275
3409 1 7.23 18.075 28.92
3410 1 9.0375 19.8825 28.92
3411 1 9.0375 18.075 30.7275
3412 1 7.23 19.8825 30.7275
3413 1 10.845 18.075 28.92
3414 1 12.6525 19.8825 28.92
3415 1 12.6525 18.075 30.7275
3416 1 10.845 19.8825 30.7275
3417 1 14.46 18.075 28.92
3418 1 16.2675 19.8825 28.92
3419 1 16.2675 18.075 30.7275
3420 1 14.46 19.8825 30.7275
3421 1 18.075 18.075 28.92
3422 1 19.8825 19.8825 28.92
3423 1 19.8825 18.075 30.7275
3424 1 18.075 19.8825 30.7275
3425 1 21.69 18.075 28.92
3426 1 23.4975 19.8825 28.92
3427 1 23.4975 18.075 30.7275
3428 1 21.69 19.8825 30.7275
3429 1 25.305 18.075 28.92
3430 1 27.1125 19.8825 28.92
3431 1 27.1125 18.075 30.7275
3432 1 25.305 19.8825 30.7275
3433 1 28.92 18.075 28.92
3434 1 30.7275 19.8825 28.92
3435 1 30.7275 18.075 30.7275
3436 1 28.92 19.8825 30.7275
3437 1 32.535 18.075 28.92
3438 1 34.3425 19.8825 28.92
3439 1 34.3425 18.075 30.7275
3440 1 32.535 19.8825 30.7275
3441 1 0 21.69 28.92
3442 1 1.8075 23.4975 28.92
3443 1 1.8075 21.69 30.7275
3444 1 0 23.4975 30.7275
3445 1 3.615 21.69 28.92
3446 1 5.4225 23.4975 28.92
3447 1 5.4225 21.69 30.7275
3448 1 3.615 23.4975 30.7275
3449 1 7.23 21.69 28.92
3450 1 9.0375 23.4975 28.92
3451 1 9.0375 21.69 30.7275
3452 1 7.23 23.4975 30.7275
3453 1 10.845 21.69 28.92
3454 1 12.6525 23.4975 28.92
3455 1 12.6525 21.69 30.7275
3456 1 10.845 23.4975 30.7275
3457 1 14.46 21.69 28.92
3458 1 16.2675 23.4975 28.92
3459 1 16.2675 21.69 30.7275
3460 1 14.46 23.4975 30.7275
3461 1 18.075 21.69 28.92
3462 1 19.8825 23.4975 28.92
3463 1 19.8825 21.69 30.7275
3464 1 18.075 23.4975 30.7275
3465 1 21.69 21.69 28.92
3466 1 23.4975 23.4975 28.92
3467 1 23.4975 21.69 30.7275
3468 1 21.69 23.4975 30.7275
3469 1 25.305 21.69 28.92
3470 1 27.1125 23.4975 28.92
3471 1 27.1125 21.69 30.7275
3472 1 25.305 23.4975 30.7275
3473 1 28.92 21.69 28.92
3474 1 30.7275 23.4975 28.92
3475 1 30.7275 21.69 30.7275
3476 1 28.92 23.4975 30.7275
3477 1 32.535 21.69 28.92
3478 1 34.3425 23.4975 28.92
3479 1 34.3425 21.69 30.7275
3480 1 32.535 23.4975 30.7275
3481 1 0 25.305 28.92
3482 1 1.8075 27.1125 28.92
3483 1 1.8075 25.305 30.7275
3484 1 0 27.1125 30.7275
3485 1 3.615 25.305 28.92
3486 1 5.4225 27.1125 28.92
3487 1 5.4225 25.305 30.7275
3488 1 3.615 27.1125 30.7275
3489 1 7.23 25.305 28.92
3490 1 9.0375 27.1125 28.92
3491 1 9.0375 25.305 30.7275
3492 1 7.23 27.1125 30.7275
3493 1 10.845 25.305 28.92
3494 1 12.6525 27.1125 28.92
3495 1 12.6525 25.305 30.7275
3496 1 10.845 27.1125 30.7275
3497 1 14.46 25.305 28.92
3498 1 16.2675 27.1125 28.92
3499 1 16.2675 25.305 30.7275
3500 1 14.46 27.1125 30.7275
3501 1 18.075 25.305 28.92
3502 1 19.8825 27.1125 28.92
3503 1 19.8825 25.305 30.7275
3504 1 18.075 27.1125 30.7275
3505 1 21.69 25.305 28.92
3506 1 23.4975 27.1125 28.92
3507 1 23.4975 25.305 30.7275
3508 1 21.69 27.1125 30.7275
3509 1 25.305 25.305 28.92
3510 1 27.1125 27.1125 28.92
3511 1 27.1125 25.305 30.7275
3512 1 25.305 27.1125 30.7275
3513 1 28.92 25.305 28.92
3514 1 30.7275 27.1125 28.92
3515 1 30.7275 25.305 30.7275
3516 1 28.92 27.1125 30.7275
3517 1 32.535 25.305 28.92
3518 1 34.3425 27.1125 28.92
3519 1 34.3425 25.305 30.7275
3520 1 32.535 27.1125 30.7275
3521 1 0 28.92 28.92
3522 1 1.8075 30.7275 28.92
3523 1 1.8075 28.92 30.7275
3524 1 0 30.7275 30.7275
3525 1 3.615 28.92 28.92
3526 1 5.4225 30.7275 28.92
3527 1 5.4225 28.92 30.7275
3528 1 3.615 30.7275 30.7275
3529 1 7.23 28.92 28.92
3530 1 9.0375 30.7275 28.92
3531 1 9.0375 28.92 30.7275
3532 1 7.23 30.7275 30.7275
3533 1 10.845 28.92 28.92
3534 1 12.6525 30.7275 28.92
3535 1 12.6525 28.92 30.7275
3536 1 10.845 30.7275 30.7275
3537 1 14.46 28.92 28.92
3538 1 16.2675 30.7275 28.92
3539 1 16.2675 28.92 30.7275
3540 1 14.46 30.7275 30.7275
3541 1 18.075 28.92 28.92
3542 1 19.8825 30.7275 28.92
3543 1 19.8825 28.92 30.7275
3544 1 18.075 30.7275 30.7275
3545 1 21.69 28.92 28.92
3546 1 23.4975 30.7275 28.92
3547 1 23.4975 28.92 30.7275
3548 1 21.69 30.7275 30.7275
3549 1 25.305 28.92 28.92
3550 1 27.1125 30.7275 28.92
3551 1 27.1125 28.92 30.7275
3552 1 25.305 30.7275 30.7275
3553 1 28.92 28.92 28.92
3554 1 30.7275 30.7275 28.92
3555 1 30.7275 28.92 30.7275
3556 1 28.92 30.7275 30.7275
3557 1 32.535 28.92 28.92
3558 1 34.3425 30.7275 28.92
3559 1 34.3425 28.92 30.7275
3560 1 32.535 30.7275 30.7275
3561 1 0 32.535 28.92
3562 1 1.8075 34.3425 28.92
3563 1 1.8075 32.535 30.7275
3564 1 0 34.3425 30.7275
3565 1 3.615 32.535 28.92
3566 1 5.4225 34.3425 28.92
3567 1 5.4225 32.535 30.7275
3568 1 3.615 34.3425 30.7275
3569 1 7.23 32.535 28.92
3570 1 9.0375 34.3425 28.92
3571 1 9.0375 32.535 30.7275
3572 1 7.23 34.3425 30.7275
3573 1 10.845 32.535 28.92
3574 1 12.6525 34.3425 28.92
3575 1 12.6525 32.535 30.7275
3576 1 10.845 34.3425 30.7275
3577 1 14.46 32.535 28.92
3578 1 16.2675 34.3425 28.92
3579 1 16.2675 32.535 30.7275
3580 1 14.46 34.3425 30.7275
3581 1 18.075 32.535 28.92
3582 1 19.8825 34.3425 28.92
3583 1 19.8825 32.535 30.7275
3584 1 18.075 34.3425 30.7275
3585 1 21.69 32.535 28.92
3586 1 23.4975 34.3425 28.92
3587 1 23.4975 32.535 30.7275
3588 1 21.69 34.3425 30.7275
3589 1 25.305 32.535 28.92
3590 1 27.1125 34.3425 28.92
3591 1 27.1125 32.535 30.7275
3592 1 25.305 34.3425 30.7275
3593 1 28.92 32.535 28.92
3594 1 30.7275 34.3425 28.92
3595 1 30.7275 32.535 30.7275
3596 1 28.92 34.3425 30.7275
3597 1 32.535 32.535 28.92
3598 1 34.3425 34.3425 28.92
3599 1 34.3425 32.535 30.7275
3600 1 32.535 34.3425 30.7275
3601 1 0 0 32.535
3602 1 1.8075 1.8075 32.535
3603 1 1.8075 0 34.3425
3604 1 0 1.8075 34.3425
3605 1 3.615 0 32.535
3606 1 5.4225 1.8075 32.535
3607 1 5.4225 0 34.3425
3608 1 3.615 1.8075 34.3425
3609 1 7.23 0 32.535
3610 1 9.0375 1.8075 32.535
3611 1 9.0375 0 34.3425
3612 1 7.23 1.8075 34.3425
3613 1 10.845 0 32.535
3614 1 12.6525 1.8075 32.535
3615 1 12.6525 0 34.3425
3616 1 10.845 1.8075 34.3425
3617 1 14.46 0 32.535
3618 1 16.2675 1.8075 32.535
3619 1 16.2675 0 34.3425
3620 1 14.46 1.8075 34.3425
3621 1 18.075 0 32.535
3622 1 19.8825 1.8075 32.535
3623 1 19.8825 0 34.3425
3624 1 18.075 1.8075 34.3425
3625 1 21.69 0 32.535
3626 1 23.4975 1.8075 32.535
3627 1 23.4975 0 34.3425
3628 1 21.69 1.8075 34.3425
3629 1 25.305 0 32.535
3630 1 27.1125 1.8075 32.535
3631 1 27.1125 0 34.3425
3632 1 25.305 1.8075 34.3425
3633 1 28.92 0 32.535
3634 1 30.7275 1.8075 32.535
3635 1 30.7275 0 34.3425
3636 1 28.92 1.8075 34.3425
3637 1 32.535 0 32.535
3638 1 34.3425 1.8075 32.535
3639 1 34.3425 0 34.3425
3640 1 32.535 1.8075 34.3425
3641 1 0 3.615 32.535
3642 1 1.8075 5.4225 32.535
3643 1 1.8075 3.615 34.3425
3644 1 0 5.4225 34.3425
3645 1 3.615 3.615 32.535
3646 1 5.4225 5.4225 32.535
3647 1 5.4225 3.615 34.3425
3648 1 3.615 5.4225 34.3425
3649 1 7.23 3.615 32.535
3650 1 9.0375 5.4225 32.535
3651 1 9.0375 3.615 34.3425
3652 1 7.23 5.4225 34.3425
3653 1 10.845 3.615 32.535
3654 1 12.6525 5.4225 32.535
3655 1 12.6525 3.615 34.3425
3656 1 10.845 5.4225 34.3425
3657 1 14.46 3.615 32.535
3658 1 16.2675 5.4225 32.535
3659 1 16.2675 3.615 34.3425
3660 1 14.46 5.4225 34.3425
3661 1 18.075 3.615 32.535
3662 1 19.8825 5.4225 32.535
3663 1 19.8825 3.615 34.3425
3664 1 18.075 5.4225 34.3425
3665 1 21.69 3.615 32.535
3666 1 23.4975 5.4225 32.535
3667 1 23.4975 3.615 34.3425
3668 1 21.69 5.4225 34.3425
3669 1 25.305 3.615 32.535
3670 1 27.1125 5.4225 32.535
3671 1 27.1125 3.615 34.3425
3672 1 25.305 5.4225 34.3425
3673 1 28.92 3.615 32.535
3674 1 30.7275 5.4225 32.535
3675 1 30.7275 3.615 34.3425
3676 1 28.92 5.4225 34.3425
3677 1 32.535 3.615 32.535
3678 1 34.3425 5.4225 32.535
3679 1 34.3425 3.615 34.3425
3680 1 32.535 5.4225 34.3425
3681 1 0 7.23 32.535
3682 1 1.8075 9.0375 32.535
3683 1 1.8075 7.23 34.3425
3684 1 0 9.0375 34.3425
3685 1 3.615 7.23 32.535
3686 1 5.4225 9.0375 32.535
3687 1 5.4225 7.23 34.3425
3688 1 3.615 9.0375 34.3425
3689 1 7.23 7.23 32.535
3690 1 9.0375 9.0375 32.535
3691 1 9.0375 7.23 34.3425
3692 1 7.23 9.0375 34.3425
3693 1 10.845 7.23 32.535
3694 1 12.6525 9.0375 32.535
3695 1 12.6525 7.23 34.3425
3696 1 10.845 9.0375 34.3425
3697 1 14.46 7.23 32.535
3698 1 16.2675 9.0375 32.535
3699 1 16.2675 7.23 34.3425
3700 1 14.46 9.0375 34.3425
3701 1 18.075 7.23 32.535
3702 1 19.8825 9.0375 32.535
3703 1 19.8825 7.23 34.3425
3704 1 18.075 9.0375 34.3425
3705 1 21.69 7.23 32.535
3706 1 23.4975 9.0375 32.535
3707 1 23.4975 7.23 34.3425
3708 1 21.69 9.0375 34.3425
3709 1 25.305 7.23 32.535
3710 1 27.1125 9.0375 32.535
3711 1 27.1125 7.23 34.3425
3712 1 25.305 9.0375 34.3425
3713 1 28.92 7.23 32.535
3714 1 30.7275 9.0375 32.535
3715 1 30.7275 7.23 34.3425
3716 1 28.92 9.0375 34.3425
3717 1 32.535 7.23 32.535
3718 1 34.3425 9.0375 32.535
3719 1 34.3425 7.23 34.3425
3720 1 32.535 9.0375 34.3425
3721 1 0 10.845 32.535
3722 1 1.8075 12.6525 32.535
3723 1 1.8075 10.845 34.3425
3724 1 0 12.6525 34.3425
3725 1 3.615 10.845 32.535
3726 1 5.4225 12.6525 32.535
3727 1 5.4225 10.845 34.3425
3728 1 3.615 12.6525 34.3425
3729 1 7.23 10.845 32.535
3730 1 9.0375 12.6525 32.535
3731 1 9.0375 10.845 34.3425
3732 1 7.23 12.6525 34.3425
3733 1 10.845 10.845 32.535
3734 1 12.6525 12.6525 32.535
3735 1 12.6525 10.845 34.3425
3736 1 10.845 12.6525 34.3425
3737 1 14.46 10.845 32.535
3738 1 16.2675 12.6525 32.535
3739 1 16.2675 10.845 34.3425
3740 1 14.46 12.6525 34.3425
3741 1 18.075 10.845 32.535
3742 1 19.8825 12.6525 32.535
3743 1 19.8825 10.845 34.3425
3744 1 18.075 12.6525 34.3425
3745 1 21.69 10.845 32.535
3746 1 23.4975 12.6525 32.535
3747 1 23.4975 10.845 34.3425
3748 1 21.69 12.6525 34.3425
3749 1 25.305 10.845 32.535
3750 1 27.1125 12.6525 32.535
3751 1 27.1125 10.845 34.3425
3752 1 25.305 12.6525 34.3425
3753 1 28.92 10.845 32.535
3754 1 30.7275 12.6525 32.535
3755 1 30.7275 10.845 34.3425
3756 1 28.92 12.6525 34.3425
3757 1 32.535 10.845 32.535
3758 1 34.3425 12.6525 32.535
3759 1 34.3425 10.845 34.3425
3760 1 32.535 12.6525 34.3425
3761 1 0 14.46 32.535
3762 1 1.8075 16.2675 32.535
3763 1 1.8075 14.46 34.3425
3764 1 0 16.2675 34.3425
3765 1 3.615 14.46 32.535
3766 1 5.4225 16.2675 32.535
3767 1 5.4225 14.46 34.3425
3768 1 3.615 16.2675 34.3425
3769 1 7.23 14.46 32.535
3770 1 9.0375 16.2675 32.535
3771 1 9.0375 14.46 34.3425
3772 1 7.23 16.2675 34.3425
3773 1 10.845 14.46 32.535
3774 1 12.6525 16.2675 32.535
3775 1 12.6525 14.46 34.3425
3776 1 10.845 16.2675 34.3425
3777 1 14.46 14.46 32.535
3778 1 16.2675 16.2675 32.535
3779 1 16.2675 14.46 34.3425
3780 1 14.46 16.2675 34.3425
3781 1 18.075 14.46 32.535
3782 1 19.8825 16.2675 32.535
3783 1 19.8825 14.46 34.3425
3784 1 18.075 16.2675 34.3425
3785 1 21.69 14.46 32.535
3786 1 23.4975 16.2675 32.535
3787 1 23.4975 14.46 34.3425
3788 1 21.69 16.2675 34.3425
3789 1 25.305 14.46 32.535
3790 1 27.1125 16.2675 32.535
3791 1 27.1125 14.46 34.3425
3792 1 25.305 16.2675 34.3425
3793 1 28.92 14.46 32.535
3794 1 30.7275 16.2675 32.535
3795 1 30.7275 14.46 34.3425
3796 1 28.92 16.2675 34.3425
3797 1 32.535 14.46 32.535
3798 1 34.3425 16.2675 32.535
3799 1 34.3425 14.46 34.3425
3800 1 32.535 16.2675 34.3425
3801 1 0 18.075 32.535
3802 1 1.8075 19.8825 32.535
3803 1 1.8075 18.075 34.3425
3804 1 0 19.8825 34.3425
3805 1 3.615 18.075 32.535
3806 1 5.4225 19.8825 32.535
3807 1 5.4225 18.075 34.3425
3808 1 3.615 19.8825 34.3425
3809 1 7.23 18.075 32.535
3810 1 9.0375 19.8825 32.535
3811 1 9.0375 18.075 34.3425
3812 1 7.23 19.8825 34.3425
3813 1 10.845 18.075 32.535
3814 1 12.6525 19.8825 32.535
3815 1 12.6525 18.075 34.3425
3816 1 10.845 19.8825 34.3425
3817 1 14.46 18.075 32.535
3818 1 16.2675 19.8825 32.535
3819 1 16.2675 18.075 34.3425
3820 1 14.46 19.8825 34.3425
3821 1 18.075 18.075 32.535
3822 1 19.8825 19.8825 32.535
3823 1 19.8825 18.075 34.3425
3824 1 18.075 19.8825 34.3425
3825 1 21.69 18.075 32.535
3826 1 23.4975 19.8825 32.535
3827 1 23.4975 18.075 34.3425
3828 1 21.69 19.8825 34.3425
3829 1 25.305 18.075 32.535
3830 1 27.1125 19.8825 32.535
3831 1 27.1125 18.075 34.3425
3832 1 25.305 19.8825 34.3425
3833 1 28.92 18.075 32.535
3834 1 30.7275 19.8825 32.535
3835 1 30.7275 18.075 34.3425
3836 1 28.92 19.8825 34.3425
3837 1 32.535 18.075 32.535
3838 1 34.3425 19.8825 32.535
3839 1 34.3425 18.075 34.3425
3840 1 32.535 19.8825 34.3425
3841 1 0 21.69 32.535
3842 1 1.8075 23.4975 32.535
3843 1 1.8075 21.69 34.3425
3844 1 0 23.4975 34.3425
3845 1 3.615 21.69 32.535
3846 1 5.4225 23.4975 32.535
3847 1 5.4225 21.69 34.3425
3848 1 3.615 23.4975 34.3425
3849 1 7.23 21.69 32.535
3850 1 9.0375 23.4975 32.535
3851 1 9.0375 21.69 34.3425
3852 1 7.23 23.4975 34.3425
3853 1 10.845 21.69 32.535
3854 1 12.6525 23.4975 32.535
3855 1 12.6525 21.69 34.3425
3856 1 10.845 23.4975 34.3425
3857 1 14.46 21.69 32.535
3858 1 16.2675 23.4975 32.535
3859 1 16.2675 21.69 34.3425
3860 1 14.46 23.4975 34.3425
3861 1 18.075 21.69 32.535
3862 1 19.8825 23.4975 32.535
3863 1 19.8825 21.69 34.3425
3864 1 18.075 23.4975 34.3425
3865 1 21.69 21.69 32.535
3866 1 23.4975 23.4975 32.535
3867 1 23.4975 21.69 34.3425
3868 1 21.69 23.4975 34.3425
3869 1 25.305 21.69 32.535
3870 1 27.1125 23.4975 32.535
3871 1 27.1125 21.69 34.3425
3872 1 25.305 23.4975 34.3425
3873 1 28.92 21.69 32.535
3874 1 30.7275 23.4975 32.535
3875 1 30.7275 21.69 34.3425
3876 1 28.92 23.4975 34.3425
3877 1 32.535 21.69 32.535
3878 1 34.3425 23.4975 32.535
3879 1 34.3425 21.69 34.3425
3880 1 32.535 23.4975 34.3425
3881 1 0 25.305 32.535
3882 1 1.8075 27.1125 32.535
3883 1 1.8075 25.305 34.3425
3884 1 0 27.1125 34.3425
3885 1 3.615 25.305 32.535
3886 1 5.4225 27.1125 32.535
3887 1 5.4225 25.305 34.3425
3888 1 3.615 27.1125 34.3425
3889 1 7.23 25.305 32.535
3890 1 9.0375 27.1125 32.535
3891 1 9.0375 25.305 34.3425
3892 1 7.23 27.1125 34.3425
3893 1 10.845 25.305 32.535
3894 1 12.6525 27.1125 32.535
3895 1 12.6525 25.305 34.3425
3896 1 10.845 27.1125 34.3425
3897 1 14.46 25.305 32.535
3898 1 16.2675 27.1125 32.535
3899 1 16.2675 25.305 34.3425
3900 1 14.46 27.1125 34.3425
3901 1 18.075 25.305 32.535
3902 1 19.8825 27.1125 32.535
3903 1 19.8825 25.305 34.3425
3904 1 18.075 27.1125 34.3425
3905 1 21.69 25.305 32.535
3906 1 23.4975 27.1125 32.535
3907 1 23.4975 25.305 34.3425
3908 1 21.69 27.1125 34.3425
3909 1 25.305 25.305 32.535
3910 1 27.1125 27.1125 32.535
3911 1 27.1125 25.305 34.3425
3912 1 25.305 27.1125 34.3425
3913 1 28.92 25.305 32.535
3914 1 30.7275 27.1125 32.535
3915 1 30.7275 25.305 34.3425
3916 1 28.92 27.1125 34.3425
3917 1 32.535 25.305 32.535
3918 1 34.3425 27.1125 32.535
3919 1 34.3425 25.305 34.3425
3920 1 32.535 27.1125 34.3425
3921 1 0 28.92 32.535
3922 1 1.8075 30.7275 32.535
3923 1 1.8075 28.92 34.3425
3924 1 0 30.7275 34.3425
3925 1 3.615 28.92 32.535
3926 1 5.4225 30.7275 32.535
3927 1 5.4225 28.92 34.3425
3928 1 3.615 30.7275 34.3425
3929 1 7.23 28.92 32.535
3930 1 9.0375 30.7275 32.535
3931 1 9.0375 28.92 34.3425
3932 1 7.23 30.7275 34.3425
3933 1 10.845 28.92 32.535
3934 1 12.6525 30.7275 32.535
3935 1 12.6525 28.92 34.3425
3936 1 10.845 30.7275 34.3425
3937 1 14.46 28.92 32.535
3938 1 16.2675 30.7275 32.535
3939 1 16.2675 28.92 34.3425
3940 1 14.46 30.7275 34.3425
3941 1 18.075 28.92 32.535
3942 1 19.8825 30.7275 32.535
3943 1 19.8825 28.92 34.3425
3944 1 18.075 30.7275 34.3425
3945 1 21.69 28.92 32.535
3946 1 23.4975 30.7275 32.535
3947 1 23.4975 28.92 34.3425
3948 1 21.69 30.7275 34.3425
3949 1 25.305 28.92 32.535
3950 1 27.1125 30.7275 32.535
3951 1 27.1125 28.92 34.3425
3952 1 25.305 30.7275 34.3425
3953 1 28.92 28.92 32.535
3954 1 30.7275 30.7275 32.535
3955 1 30.7275 28.92 34.3425
3956 1 28.92 30.7275 34.3425
3957 1 32.535 28.92 32.535
3958 1 34.3425 30.7275 32.535
3959 1 34.3425 28.92 34.3425
3960 1 32.535 30.7275 34.3425
3961 1 0 32.535 32.535
3962 1 1.8075 34.3425 32.535
3963 1 1.8075 32.535 34.3425
3964 1 0 34.3425 34.3425
3965 1 3.615 32.535 32.535
3966 1 5.4225 34.3425 32.535
3967 1 5.4225 32.535 34.3425
3968 1 3.615 34.3425 34.3425
3969 1 7.23 32.535 32.535
3970 1 9.0375 34.3425 32.535
3971 1 9.0375 32.535 34.3425
3972 1 7.23 34.3425 34.3425
3973 1 10.845 32.535 32.535
3974 1 12.6525 34.3425 32.535
3975 1 12.6525 32.535 34.3425
3976 1 10.845 34.3425 34.3425
3977 1 14.46 32.535 32.535
3978 1 16.2675 34.3425 32.535
3979 1 16.2675 32.535 34.3425
3980 1 14.46 34.3425 34.3425
3981 1 18.075 32.535 32.535
3982 1 19.8825 34.3425 32.535
3983 1 19.8825 32.535 34.3425
3984 1 18.075 34.3425 34.3425
3985 1 21.69 32.535 32.535
3986 1 23.4975 34.3425 32.535
3987 1 23.4975 32.535 34.3425
3988 1 21.69 34.3425 34.3425
3989 1 25.305 32.535 32.535
3990 1 27.1125 34.3425 32.535
3991 1 27.1125 32.535 34.3425
3992 1 25.305 34.3425 34.3425
3993 1 28.92 32.535 32.535
3994 1 30.7275 34.3425 32.535
3995 1 30.7275 32.535 34.3425
3996 1 28.92 34.3425 34.3425
3997 1 32.535 32.535 32.535
3998 1 34.3425 34.3425 32.535
3999 1 34.3425 32.535 34.3425
4000 1 32.535 34.3425 34.3425
