LAMMPS data file via write_data, version 22 Jul 2025, timestep = 0, units = metal

4000 atoms
1 atom types

0 36.15 xlo xhi
0 36.15 ylo yhi
0 36.15 zlo zhi

Masses

1 63.55

Atoms # atomic

1 1 0 0 0 0 0 0
2 1 1.8075 1.8075 0 0 0 0
3 1 1.8075 0 1.8075 0 0 0
4 1 0 1.8075 1.8075 0 0 0
5 1 3.615 0 0 0 0 0
6 1 5.4225 1.8075 0 0 0 0
7 1 5.4225 0 1.8075 0 0 0
8 1 3.615 1.8075 1.8075 0 0 0
9 1 7.23 0 0 0 0 0
10 1 9.037500000000001 1.8075 0 0 0 0
11 1 9.037500000000001 0 1.8075 0 0 0
12 1 7.23 1.8075 1.8075 0 0 0
13 1 10.845 0 0 0 0 0
14 1 12.6525 1.8075 0 0 0 0
15 1 12.6525 0 1.8075 0 0 0
16 1 10.845 1.8075 1.8075 0 0 0
17 1 14.46 0 0 0 0 0
18 1 16.267500000000002 1.8075 0 0 0 0
19 1 16.267500000000002 0 1.8075 0 0 0
20 1 14.46 1.8075 1.8075 0 0 0
21 1 18.075000000000003 0 0 0 0 0
22 1 19.8825 1.8075 0 0 0 0
23 1 19.8825 0 1.8075 0 0 0
24 1 18.075000000000003 1.8075 1.8075 0 0 0
25 1 21.69 0 0 0 0 0
26 1 23.497500000000002 1.8075 0 0 0 0
27 1 23.497500000000002 0 1.8075 0 0 0
28 1 21.69 1.8075 1.8075 0 0 0
29 1 25.305 0 0 0 0 0
30 1 27.1125 1.8075 0 0 0 0
31 1 27.1125 0 1.8075 0 0 0
32 1 25.305 1.8075 1.8075 0 0 0
33 1 28.92 0 0 0 0 0
34 1 30.727500000000003 1.8075 0 0 0 0
35 1 30.727500000000003 0 1.8075 0 0 0
36 1 28.92 1.8075 1.8075 0 0 0
37 1 32.535000000000004 0 0 0 0 0
38 1 34.3425 1.8075 0 0 0 0
39 1 34.3425 0 1.8075 0 0 0
40 1 32.535000000000004 1.8075 1.8075 0 0 0
41 1 0 3.615 0 0 0 0
42 1 1.8075 5.4225 0 0 0 0
43 1 1.8075 3.615 1.8075 0 0 0
44 1 0 5.4225 1.8075 0 0 0
45 1 3.615 3.615 0 0 0 0
46 1 5.4225 5.4225 0 0 0 0
47 1 5.4225 3.615 1.8075 0 0 0
48 1 3.615 5.4225 1.8075 0 0 0
49 1 7.23 3.615 0 0 0 0
50 1 9.037500000000001 5.4225 0 0 0 0
51 1 9.037500000000001 3.615 1.8075 0 0 0
52 1 7.23 5.4225 1.8075 0 0 0
53 1 10.845 3.615 0 0 0 0
54 1 12.6525 5.4225 0 0 0 0
55 1 12.6525 3.615 1.8075 0 0 0
56 1 10.845 5.4225 1.8075 0 0 0
57 1 14.46 3.615 0 0 0 0
58 1 16.267500000000002 5.4225 0 0 0 0
59 1 16.267500000000002 3.615 1.8075 0 0 0
60 1 14.46 5.4225 1.8075 0 0 0
61 1 18.075000000000003 3.615 0 0 0 0
62 1 19.8825 5.4225 0 0 0 0
63 1 19.8825 3.615 1.8075 0 0 0
64 1 18.075000000000003 5.4225 1.8075 0 0 0
65 1 21.69 3.615 0 0 0 0
66 1 23.497500000000002 5.4225 0 0 0 0
67 1 23.497500000000002 3.615 1.8075 0 0 0
68 1 21.69 5.4225 1.8075 0 0 0
69 1 25.305 3.615 0 0 0 0
70 1 27.1125 5.4225 0 0 0 0
71 1 27.1125 3.615 1.8075 0 0 0
72 1 25.305 5.4225 1.8075 0 0 0
73 1 28.92 3.615 0 0 0 0
74 1 30.727500000000003 5.4225 0 0 0 0
75 1 30.727500000000003 3.615 1.8075 0 0 0
76 1 28.92 5.4225 1.8075 0 0 0
77 1 32.535000000000004 3.615 0 0 0 0
78 1 34.3425 5.4225 0 0 0 0
79 1 34.3425 3.615 1.8075 0 0 0
80 1 32.535000000000004 5.4225 1.8075 0 0 0
81 1 0 7.23 0 0 0 0
82 1 1.8075 9.037500000000001 0 0 0 0
83 1 1.8075 7.23 1.8075 0 0 0
84 1 0 9.037500000000001 1.8075 0 0 0
85 1 3.615 7.23 0 0 0 0
86 1 5.4225 9.037500000000001 0 0 0 0
87 1 5.4225 7.23 1.8075 0 0 0
88 1 3.615 9.037500000000001 1.8075 0 0 0
89 1 7.23 7.23 0 0 0 0
90 1 9.037500000000001 9.037500000000001 0 0 0 0
91 1 9.037500000000001 7.23 1.8075 0 0 0
92 1 7.23 9.037500000000001 1.8075 0 0 0
93 1 10.845 7.23 0 0 0 0
94 1 12.6525 9.037500000000001 0 0 0 0
95 1 12.6525 7.23 1.8075 0 0 0
96 1 10.845 9.037500000000001 1.8075 0 0 0
97 1 14.46 7.23 0 0 0 0
98 1 16.267500000000002 9.037500000000001 0 0 0 0
99 1 16.267500000000002 7.23 1.8075 0 0 0
100 1 14.46 9.037500000000001 1.8075 0 0 0
101 1 18.075000000000003 7.23 0 0 0 0
102 1 19.8825 9.037500000000001 0 0 0 0
103 1 19.8825 7.23 1.8075 0 0 0
104 1 18.075000000000003 9.037500000000001 1.8075 0 0 0
105 1 21.69 7.23 0 0 0 0
106 1 23.497500000000002 9.037500000000001 0 0 0 0
107 1 23.497500000000002 7.23 1.8075 0 0 0
108 1 21.69 9.037500000000001 1.8075 0 0 0
109 1 25.305 7.23 0 0 0 0
110 1 27.1125 9.037500000000001 0 0 0 0
111 1 27.1125 7.23 1.8075 0 0 0
112 1 25.305 9.037500000000001 1.8075 0 0 0
113 1 28.92 7.23 0 0 0 0
114 1 30.727500000000003 9.037500000000001 0 0 0 0
115 1 30.727500000000003 7.23 1.8075 0 0 0
116 1 28.92 9.037500000000001 1.8075 0 0 0
117 1 32.535000000000004 7.23 0 0 0 0
118 1 34.3425 9.037500000000001 0 0 0 0
119 1 34.3425 7.23 1.8075 0 0 0
120 1 32.535000000000004 9.037500000000001 1.8075 0 0 0
121 1 0 10.845 0 0 0 0
122 1 1.8075 12.6525 0 0 0 0
123 1 1.8075 10.845 1.8075 0 0 0
124 1 0 12.6525 1.8075 0 0 0
125 1 3.615 10.845 0 0 0 0
126 1 5.4225 12.6525 0 0 0 0
127 1 5.4225 10.845 1.8075 0 0 0
128 1 3.615 12.6525 1.8075 0 0 0
129 1 7.23 10.845 0 0 0 0
130 1 9.037500000000001 12.6525 0 0 0 0
131 1 9.037500000000001 10.845 1.8075 0 0 0
132 1 7.23 12.6525 1.8075 0 0 0
133 1 10.845 10.845 0 0 0 0
134 1 12.6525 12.6525 0 0 0 0
135 1 12.6525 10.845 1.8075 0 0 0
136 1 10.845 12.6525 1.8075 0 0 0
137 1 14.46 10.845 0 0 0 0
138 1 16.267500000000002 12.6525 0 0 0 0
139 1 16.267500000000002 10.845 1.8075 0 0 0
140 1 14.46 12.6525 1.8075 0 0 0
141 1 18.075000000000003 10.845 0 0 0 0
142 1 19.8825 12.6525 0 0 0 0
143 1 19.8825 10.845 1.8075 0 0 0
144 1 18.075000000000003 12.6525 1.8075 0 0 0
145 1 21.69 10.845 0 0 0 0
146 1 23.497500000000002 12.6525 0 0 0 0
147 1 23.497500000000002 10.845 1.8075 0 0 0
148 1 21.69 12.6525 1.8075 0 0 0
149 1 25.305 10.845 0 0 0 0
150 1 27.1125 12.6525 0 0 0 0
151 1 27.1125 10.845 1.8075 0 0 0
152 1 25.305 12.6525 1.8075 0 0 0
153 1 28.92 10.845 0 0 0 0
154 1 30.727500000000003 12.6525 0 0 0 0
155 1 30.727500000000003 10.845 1.8075 0 0 0
156 1 28.92 12.6525 1.8075 0 0 0
157 1 32.535000000000004 10.845 0 0 0 0
158 1 34.3425 12.6525 0 0 0 0
159 1 34.3425 10.845 1.8075 0 0 0
160 1 32.535000000000004 12.6525 1.8075 0 0 0
161 1 0 14.46 0 0 0 0
162 1 1.8075 16.267500000000002 0 0 0 0
163 1 1.8075 14.46 1.8075 0 0 0
164 1 0 16.267500000000002 1.8075 0 0 0
165 1 3.615 14.46 0 0 0 0
166 1 5.4225 16.267500000000002 0 0 0 0
167 1 5.4225 14.46 1.8075 0 0 0
168 1 3.615 16.267500000000002 1.8075 0 0 0
169 1 7.23 14.46 0 0 0 0
170 1 9.037500000000001 16.267500000000002 0 0 0 0
171 1 9.037500000000001 14.46 1.8075 0 0 0
172 1 7.23 16.267500000000002 1.8075 0 0 0
173 1 10.845 14.46 0 0 0 0
174 1 12.6525 16.267500000000002 0 0 0 0
175 1 12.6525 14.46 1.8075 0 0 0
176 1 10.845 16.267500000000002 1.8075 0 0 0
177 1 14.46 14.46 0 0 0 0
178 1 16.267500000000002 16.267500000000002 0 0 0 0
179 1 16.267500000000002 14.46 1.8075 0 0 0
180 1 14.46 16.267500000000002 1.8075 0 0 0
181 1 18.075000000000003 14.46 0 0 0 0
182 1 19.8825 16.267500000000002 0 0 0 0
183 1 19.8825 14.46 1.8075 0 0 0
184 1 18.075000000000003 16.267500000000002 1.8075 0 0 0
185 1 21.69 14.46 0 0 0 0
186 1 23.497500000000002 16.267500000000002 0 0 0 0
187 1 23.497500000000002 14.46 1.8075 0 0 0
188 1 21.69 16.267500000000002 1.8075 0 0 0
189 1 25.305 14.46 0 0 0 0
190 1 27.1125 16.267500000000002 0 0 0 0
191 1 27.1125 14.46 1.8075 0 0 0
192 1 25.305 16.267500000000002 1.8075 0 0 0
193 1 28.92 14.46 0 0 0 0
194 1 30.727500000000003 16.267500000000002 0 0 0 0
195 1 30.727500000000003 14.46 1.8075 0 0 0
196 1 28.92 16.267500000000002 1.8075 0 0 0
197 1 32.535000000000004 14.46 0 0 0 0
198 1 34.3425 16.267500000000002 0 0 0 0
199 1 34.3425 14.46 1.8075 0 0 0
200 1 32.535000000000004 16.267500000000002 1.8075 0 0 0
201 1 0 18.075000000000003 0 0 0 0
202 1 1.8075 19.8825 0 0 0 0
203 1 1.8075 18.075000000000003 1.8075 0 0 0
204 1 0 19.8825 1.8075 0 0 0
205 1 3.615 18.075000000000003 0 0 0 0
206 1 5.4225 19.8825 0 0 0 0
207 1 5.4225 18.075000000000003 1.8075 0 0 0
208 1 3.615 19.8825 1.8075 0 0 0
209 1 7.23 18.075000000000003 0 0 0 0
210 1 9.037500000000001 19.8825 0 0 0 0
211 1 9.037500000000001 18.075000000000003 1.8075 0 0 0
212 1 7.23 19.8825 1.8075 0 0 0
213 1 10.845 18.075000000000003 0 0 0 0
214 1 12.6525 19.8825 0 0 0 0
215 1 12.6525 18.075000000000003 1.8075 0 0 0
216 1 10.845 19.8825 1.8075 0 0 0
217 1 14.46 18.075000000000003 0 0 0 0
218 1 16.267500000000002 19.8825 0 0 0 0
219 1 16.267500000000002 18.075000000000003 1.8075 0 0 0
220 1 14.46 19.8825 1.8075 0 0 0
221 1 18.075000000000003 18.075000000000003 0 0 0 0
222 1 19.8825 19.8825 0 0 0 0
223 1 19.8825 18.075000000000003 1.8075 0 0 0
224 1 18.075000000000003 19.8825 1.8075 0 0 0
225 1 21.69 18.075000000000003 0 0 0 0
226 1 23.497500000000002 19.8825 0 0 0 0
227 1 23.497500000000002 18.075000000000003 1.8075 0 0 0
228 1 21.69 19.8825 1.8075 0 0 0
229 1 25.305 18.075000000000003 0 0 0 0
230 1 27.1125 19.8825 0 0 0 0
231 1 27.1125 18.075000000000003 1.8075 0 0 0
232 1 25.305 19.8825 1.8075 0 0 0
233 1 28.92 18.075000000000003 0 0 0 0
234 1 30.727500000000003 19.8825 0 0 0 0
235 1 30.727500000000003 18.075000000000003 1.8075 0 0 0
236 1 28.92 19.8825 1.8075 0 0 0
237 1 32.535000000000004 18.075000000000003 0 0 0 0
238 1 34.3425 19.8825 0 0 0 0
239 1 34.3425 18.075000000000003 1.8075 0 0 0
240 1 32.535000000000004 19.8825 1.8075 0 0 0
241 1 0 21.69 0 0 0 0
242 1 1.8075 23.497500000000002 0 0 0 0
243 1 1.8075 21.69 1.8075 0 0 0
244 1 0 23.497500000000002 1.8075 0 0 0
245 1 3.615 21.69 0 0 0 0
246 1 5.4225 23.497500000000002 0 0 0 0
247 1 5.4225 21.69 1.8075 0 0 0
248 1 3.615 23.497500000000002 1.8075 0 0 0
249 1 7.23 21.69 0 0 0 0
250 1 9.037500000000001 23.497500000000002 0 0 0 0
251 1 9.037500000000001 21.69 1.8075 0 0 0
252 1 7.23 23.497500000000002 1.8075 0 0 0
253 1 10.845 21.69 0 0 0 0
254 1 12.6525 23.497500000000002 0 0 0 0
255 1 12.6525 21.69 1.8075 0 0 0
256 1 10.845 23.497500000000002 1.8075 0 0 0
257 1 14.46 21.69 0 0 0 0
258 1 16.267500000000002 23.497500000000002 0 0 0 0
259 1 16.267500000000002 21.69 1.8075 0 0 0
260 1 14.46 23.497500000000002 1.8075 0 0 0
261 1 18.075000000000003 21.69 0 0 0 0
262 1 19.8825 23.497500000000002 0 0 0 0
263 1 19.8825 21.69 1.8075 0 0 0
264 1 18.075000000000003 23.497500000000002 1.8075 0 0 0
265 1 21.69 21.69 0 0 0 0
266 1 23.497500000000002 23.497500000000002 0 0 0 0
267 1 23.497500000000002 21.69 1.8075 0 0 0
268 1 21.69 23.497500000000002 1.8075 0 0 0
269 1 25.305 21.69 0 0 0 0
270 1 27.1125 23.497500000000002 0 0 0 0
271 1 27.1125 21.69 1.8075 0 0 0
272 1 25.305 23.497500000000002 1.8075 0 0 0
273 1 28.92 21.69 0 0 0 0
274 1 30.727500000000003 23.497500000000002 0 0 0 0
275 1 30.727500000000003 21.69 1.8075 0 0 0
276 1 28.92 23.497500000000002 1.8075 0 0 0
277 1 32.535000000000004 21.69 0 0 0 0
278 1 34.3425 23.497500000000002 0 0 0 0
279 1 34.3425 21.69 1.8075 0 0 0
280 1 32.535000000000004 23.497500000000002 1.8075 0 0 0
281 1 0 25.305 0 0 0 0
282 1 1.8075 27.1125 0 0 0 0
283 1 1.8075 25.305 1.8075 0 0 0
284 1 0 27.1125 1.8075 0 0 0
285 1 3.615 25.305 0 0 0 0
286 1 5.4225 27.1125 0 0 0 0
287 1 5.4225 25.305 1.8075 0 0 0
288 1 3.615 27.1125 1.8075 0 0 0
289 1 7.23 25.305 0 0 0 0
290 1 9.037500000000001 27.1125 0 0 0 0
291 1 9.037500000000001 25.305 1.8075 0 0 0
292 1 7.23 27.1125 1.8075 0 0 0
293 1 10.845 25.305 0 0 0 0
294 1 12.6525 27.1125 0 0 0 0
295 1 12.6525 25.305 1.8075 0 0 0
296 1 10.845 27.1125 1.8075 0 0 0
297 1 14.46 25.305 0 0 0 0
298 1 16.267500000000002 27.1125 0 0 0 0
299 1 16.267500000000002 25.305 1.8075 0 0 0
300 1 14.46 27.1125 1.8075 0 0 0
301 1 18.075000000000003 25.305 0 0 0 0
302 1 19.8825 27.1125 0 0 0 0
303 1 19.8825 25.305 1.8075 0 0 0
304 1 18.075000000000003 27.1125 1.8075 0 0 0
305 1 21.69 25.305 0 0 0 0
306 1 23.497500000000002 27.1125 0 0 0 0
307 1 23.497500000000002 25.305 1.8075 0 0 0
308 1 21.69 27.1125 1.8075 0 0 0
309 1 25.305 25.305 0 0 0 0
310 1 27.1125 27.1125 0 0 0 0
311 1 27.1125 25.305 1.8075 0 0 0
312 1 25.305 27.1125 1.8075 0 0 0
313 1 28.92 25.305 0 0 0 0
314 1 30.727500000000003 27.1125 0 0 0 0
315 1 30.727500000000003 25.305 1.8075 0 0 0
316 1 28.92 27.1125 1.8075 0 0 0
317 1 32.535000000000004 25.305 0 0 0 0
318 1 34.3425 27.1125 0 0 0 0
319 1 34.3425 25.305 1.8075 0 0 0
320 1 32.535000000000004 27.1125 1.8075 0 0 0
321 1 0 28.92 0 0 0 0
322 1 1.8075 30.727500000000003 0 0 0 0
323 1 1.8075 28.92 1.8075 0 0 0
324 1 0 30.727500000000003 1.8075 0 0 0
325 1 3.615 28.92 0 0 0 0
326 1 5.4225 30.727500000000003 0 0 0 0
327 1 5.4225 28.92 1.8075 0 0 0
328 1 3.615 30.727500000000003 1.8075 0 0 0
329 1 7.23 28.92 0 0 0 0
330 1 9.037500000000001 30.727500000000003 0 0 0 0
331 1 9.037500000000001 28.92 1.8075 0 0 0
332 1 7.23 30.727500000000003 1.8075 0 0 0
333 1 10.845 28.92 0 0 0 0
334 1 12.6525 30.727500000000003 0 0 0 0
335 1 12.6525 28.92 1.8075 0 0 0
336 1 10.845 30.727500000000003 1.8075 0 0 0
337 1 14.46 28.92 0 0 0 0
338 1 16.267500000000002 30.727500000000003 0 0 0 0
339 1 16.267500000000002 28.92 1.8075 0 0 0
340 1 14.46 30.727500000000003 1.8075 0 0 0
341 1 18.075000000000003 28.92 0 0 0 0
342 1 19.8825 30.727500000000003 0 0 0 0
343 1 19.8825 28.92 1.8075 0 0 0
344 1 18.075000000000003 30.727500000000003 1.8075 0 0 0
345 1 21.69 28.92 0 0 0 0
346 1 23.497500000000002 30.727500000000003 0 0 0 0
347 1 23.497500000000002 28.92 1.8075 0 0 0
348 1 21.69 30.727500000000003 1.8075 0 0 0
349 1 25.305 28.92 0 0 0 0
350 1 27.1125 30.727500000000003 0 0 0 0
351 1 27.1125 28.92 1.8075 0 0 0
352 1 25.305 30.727500000000003 1.8075 0 0 0
353 1 28.92 28.92 0 0 0 0
354 1 30.727500000000003 30.727500000000003 0 0 0 0
355 1 30.727500000000003 28.92 1.8075 0 0 0
356 1 28.92 30.727500000000003 1.8075 0 0 0
357 1 32.535000000000004 28.92 0 0 0 0
358 1 34.3425 30.727500000000003 0 0 0 0
359 1 34.3425 28.92 1.8075 0 0 0
360 1 32.535000000000004 30.727500000000003 1.8075 0 0 0
361 1 0 32.535000000000004 0 0 0 0
362 1 1.8075 34.3425 0 0 0 0
363 1 1.8075 32.535000000000004 1.8075 0 0 0
364 1 0 34.3425 1.8075 0 0 0
365 1 3.615 32.535000000000004 0 0 0 0
366 1 5.4225 34.3425 0 0 0 0
367 1 5.4225 32.535000000000004 1.8075 0 0 0
368 1 3.615 34.3425 1.8075 0 0 0
369 1 7.23 32.535000000000004 0 0 0 0
370 1 9.037500000000001 34.3425 0 0 0 0
371 1 9.037500000000001 32.535000000000004 1.8075 0 0 0
372 1 7.23 34.3425 1.8075 0 0 0
373 1 10.845 32.535000000000004 0 0 0 0
374 1 12.6525 34.3425 0 0 0 0
375 1 12.6525 32.535000000000004 1.8075 0 0 0
376 1 10.845 34.3425 1.8075 0 0 0
377 1 14.46 32.535000000000004 0 0 0 0
378 1 16.267500000000002 34.3425 0 0 0 0
379 1 16.267500000000002 32.535000000000004 1.8075 0 0 0
380 1 14.46 34.3425 1.8075 0 0 0
381 1 18.075000000000003 32.535000000000004 0 0 0 0
382 1 19.8825 34.3425 0 0 0 0
383 1 19.8825 32.535000000000004 1.8075 0 0 0
384 1 18.075000000000003 34.3425 1.8075 0 0 0
385 1 21.69 32.535000000000004 0 0 0 0
386 1 23.497500000000002 34.3425 0 0 0 0
387 1 23.497500000000002 32.535000000000004 1.8075 0 0 0
388 1 21.69 34.3425 1.8075 0 0 0
389 1 25.305 32.535000000000004 0 0 0 0
390 1 27.1125 34.3425 0 0 0 0
391 1 27.1125 32.535000000000004 1.8075 0 0 0
392 1 25.305 34.3425 1.8075 0 0 0
393 1 28.92 32.535000000000004 0 0 0 0
394 1 30.727500000000003 34.3425 0 0 0 0
395 1 30.727500000000003 32.535000000000004 1.8075 0 0 0
396 1 28.92 34.3425 1.8075 0 0 0
397 1 32.535000000000004 32.535000000000004 0 0 0 0
398 1 34.3425 34.3425 0 0 0 0
399 1 34.3425 32.535000000000004 1.8075 0 0 0
400 1 32.535000000000004 34.3425 1.8075 0 0 0
401 1 0 0 3.615 0 0 0
402 1 1.8075 1.8075 3.615 0 0 0
403 1 1.8075 0 5.4225 0 0 0
404 1 0 1.8075 5.4225 0 0 0
405 1 3.615 0 3.615 0 0 0
406 1 5.4225 1.8075 3.615 0 0 0
407 1 5.4225 0 5.4225 0 0 0
408 1 3.615 1.8075 5.4225 0 0 0
409 1 7.23 0 3.615 0 0 0
410 1 9.037500000000001 1.8075 3.615 0 0 0
411 1 9.037500000000001 0 5.4225 0 0 0
412 1 7.23 1.8075 5.4225 0 0 0
413 1 10.845 0 3.615 0 0 0
414 1 12.6525 1.8075 3.615 0 0 0
415 1 12.6525 0 5.4225 0 0 0
416 1 10.845 1.8075 5.4225 0 0 0
417 1 14.46 0 3.615 0 0 0
418 1 16.267500000000002 1.8075 3.615 0 0 0
419 1 16.267500000000002 0 5.4225 0 0 0
420 1 14.46 1.8075 5.4225 0 0 0
421 1 18.075000000000003 0 3.615 0 0 0
422 1 19.8825 1.8075 3.615 0 0 0
423 1 19.8825 0 5.4225 0 0 0
424 1 18.075000000000003 1.8075 5.4225 0 0 0
425 1 21.69 0 3.615 0 0 0
426 1 23.497500000000002 1.8075 3.615 0 0 0
427 1 23.497500000000002 0 5.4225 0 0 0
428 1 21.69 1.8075 5.4225 0 0 0
429 1 25.305 0 3.615 0 0 0
430 1 27.1125 1.8075 3.615 0 0 0
431 1 27.1125 0 5.4225 0 0 0
432 1 25.305 1.8075 5.4225 0 0 0
433 1 28.92 0 3.615 0 0 0
434 1 30.727500000000003 1.8075 3.615 0 0 0
435 1 30.727500000000003 0 5.4225 0 0 0
436 1 28.92 1.8075 5.4225 0 0 0
437 1 32.535000000000004 0 3.615 0 0 0
438 1 34.3425 1.8075 3.615 0 0 0
439 1 34.3425 0 5.4225 0 0 0
440 1 32.535000000000004 1.8075 5.4225 0 0 0
441 1 0 3.615 3.615 0 0 0
442 1 1.8075 5.4225 3.615 0 0 0
443 1 1.8075 3.615 5.4225 0 0 0
444 1 0 5.4225 5.4225 0 0 0
445 1 3.615 3.615 3.615 0 0 0
446 1 5.4225 5.4225 3.615 0 0 0
447 1 5.4225 3.615 5.4225 0 0 0
448 1 3.615 5.4225 5.4225 0 0 0
449 1 7.23 3.615 3.615 0 0 0
450 1 9.037500000000001 5.4225 3.615 0 0 0
451 1 9.037500000000001 3.615 5.4225 0 0 0
452 1 7.23 5.4225 5.4225 0 0 0
453 1 10.845 3.615 3.615 0 0 0
454 1 12.6525 5.4225 3.615 0 0 0
455 1 12.6525 3.615 5.4225 0 0 0
456 1 10.845 5.4225 5.4225 0 0 0
457 1 14.46 3.615 3.615 0 0 0
458 1 16.267500000000002 5.4225 3.615 0 0 0
459 1 16.267500000000002 3.615 5.4225 0 0 0
460 1 14.46 5.4225 5.4225 0 0 0
461 1 18.075000000000003 3.615 3.615 0 0 0
462 1 19.8825 5.4225 3.615 0 0 0
463 1 19.8825 3.615 5.4225 0 0 0
464 1 18.075000000000003 5.4225 5.4225 0 0 0
465 1 21.69 3.615 3.615 0 0 0
466 1 23.497500000000002 5.4225 3.615 0 0 0
467 1 23.497500000000002 3.615 5.4225 0 0 0
468 1 21.69 5.4225 5.4225 0 0 0
469 1 25.305 3.615 3.615 0 0 0
470 1 27.1125 5.4225 3.615 0 0 0
471 1 27.1125 3.615 5.4225 0 0 0
472 1 25.305 5.4225 5.4225 0 0 0
473 1 28.92 3.615 3.615 0 0 0
474 1 30.727500000000003 5.4225 3.615 0 0 0
475 1 30.727500000000003 3.615 5.4225 0 0 0
476 1 28.92 5.4225 5.4225 0 0 0
477 1 32.535000000000004 3.615 3.615 0 0 0
478 1 34.3425 5.4225 3.615 0 0 0
479 1 34.3425 3.615 5.4225 0 0 0
480 1 32.535000000000004 5.4225 5.4225 0 0 0
481 1 0 7.23 3.615 0 0 0
482 1 1.8075 9.037500000000001 3.615 0 0 0
483 1 1.8075 7.23 5.4225 0 0 0
484 1 0 9.037500000000001 5.4225 0 0 0
485 1 3.615 7.23 3.615 0 0 0
486 1 5.4225 9.037500000000001 3.615 0 0 0
487 1 5.4225 7.23 5.4225 0 0 0
488 1 3.615 9.037500000000001 5.4225 0 0 0
489 1 7.23 7.23 3.615 0 0 0
490 1 9.037500000000001 9.037500000000001 3.615 0 0 0
491 1 9.037500000000001 7.23 5.4225 0 0 0
492 1 7.23 9.037500000000001 5.4225 0 0 0
493 1 10.845 7.23 3.615 0 0 0
494 1 12.6525 9.037500000000001 3.615 0 0 0
495 1 12.6525 7.23 5.4225 0 0 0
496 1 10.845 9.037500000000001 5.4225 0 0 0
497 1 14.46 7.23 3.615 0 0 0
498 1 16.267500000000002 9.037500000000001 3.615 0 0 0
499 1 16.267500000000002 7.23 5.4225 0 0 0
500 1 14.46 9.037500000000001 5.4225 0 0 0
501 1 18.075000000000003 7.23 3.615 0 0 0
502 1 19.8825 9.037500000000001 3.615 0 0 0
503 1 19.8825 7.23 5.4225 0 0 0
504 1 18.075000000000003 9.037500000000001 5.4225 0 0 0
505 1 21.69 7.23 3.615 0 0 0
506 1 23.497500000000002 9.037500000000001 3.615 0 0 0
507 1 23.497500000000002 7.23 5.4225 0 0 0
508 1 21.69 9.037500000000001 5.4225 0 0 0
509 1 25.305 7.23 3.615 0 0 0
510 1 27.1125 9.037500000000001 3.615 0 0 0
511 1 27.1125 7.23 5.4225 0 0 0
512 1 25.305 9.037500000000001 5.4225 0 0 0
513 1 28.92 7.23 3.615 0 0 0
514 1 30.727500000000003 9.037500000000001 3.615 0 0 0
515 1 30.727500000000003 7.23 5.4225 0 0 0
516 1 28.92 9.037500000000001 5.4225 0 0 0
517 1 32.535000000000004 7.23 3.615 0 0 0
518 1 34.3425 9.037500000000001 3.615 0 0 0
519 1 34.3425 7.23 5.4225 0 0 0
520 1 32.535000000000004 9.037500000000001 5.4225 0 0 0
521 1 0 10.845 3.615 0 0 0
522 1 1.8075 12.6525 3.615 0 0 0
523 1 1.8075 10.845 5.4225 0 0 0
524 1 0 12.6525 5.4225 0 0 0
525 1 3.615 10.845 3.615 0 0 0
526 1 5.4225 12.6525 3.615 0 0 0
527 1 5.4225 10.845 5.4225 0 0 0
528 1 3.615 12.6525 5.4225 0 0 0
529 1 7.23 10.845 3.615 0 0 0
530 1 9.037500000000001 12.6525 3.615 0 0 0
531 1 9.037500000000001 10.845 5.4225 0 0 0
532 1 7.23 12.6525 5.4225 0 0 0
533 1 10.845 10.845 3.615 0 0 0
534 1 12.6525 12.6525 3.615 0 0 0
535 1 12.6525 10.845 5.4225 0 0 0
536 1 10.845 12.6525 5.4225 0 0 0
537 1 14.46 10.845 3.615 0 0 0
538 1 16.267500000000002 12.6525 3.615 0 0 0
539 1 16.267500000000002 10.845 5.4225 0 0 0
540 1 14.46 12.6525 5.4225 0 0 0
541 1 18.075000000000003 10.845 3.615 0 0 0
542 1 19.8825 12.6525 3.615 0 0 0
543 1 19.8825 10.845 5.4225 0 0 0
544 1 18.075000000000003 12.6525 5.4225 0 0 0
545 1 21.69 10.845 3.615 0 0 0
546 1 23.497500000000002 12.6525 3.615 0 0 0
547 1 23.497500000000002 10.845 5.4225 0 0 0
548 1 21.69 12.6525 5.4225 0 0 0
549 1 25.305 10.845 3.615 0 0 0
550 1 27.1125 12.6525 3.615 0 0 0
551 1 27.1125 10.845 5.4225 0 0 0
552 1 25.305 12.6525 5.4225 0 0 0
553 1 28.92 10.845 3.615 0 0 0
554 1 30.727500000000003 12.6525 3.615 0 0 0
555 1 30.727500000000003 10.845 5.4225 0 0 0
556 1 28.92 12.6525 5.4225 0 0 0
557 1 32.535000000000004 10.845 3.615 0 0 0
558 1 34.3425 12.6525 3.615 0 0 0
559 1 34.3425 10.845 5.4225 0 0 0
560 1 32.535000000000004 12.6525 5.4225 0 0 0
561 1 0 14.46 3.615 0 0 0
562 1 1.8075 16.267500000000002 3.615 0 0 0
563 1 1.8075 14.46 5.4225 0 0 0
564 1 0 16.267500000000002 5.4225 0 0 0
565 1 3.615 14.46 3.615 0 0 0
566 1 5.4225 16.267500000000002 3.615 0 0 0
567 1 5.4225 14.46 5.4225 0 0 0
568 1 3.615 16.267500000000002 5.4225 0 0 0
569 1 7.23 14.46 3.615 0 0 0
570 1 9.037500000000001 16.267500000000002 3.615 0 0 0
571 1 9.037500000000001 14.46 5.4225 0 0 0
572 1 7.23 16.267500000000002 5.4225 0 0 0
573 1 10.845 14.46 3.615 0 0 0
574 1 12.6525 16.267500000000002 3.615 0 0 0
575 1 12.6525 14.46 5.4225 0 0 0
576 1 10.845 16.267500000000002 5.4225 0 0 0
577 1 14.46 14.46 3.615 0 0 0
578 1 16.267500000000002 16.267500000000002 3.615 0 0 0
579 1 16.267500000000002 14.46 5.4225 0 0 0
580 1 14.46 16.267500000000002 5.4225 0 0 0
581 1 18.075000000000003 14.46 3.615 0 0 0
582 1 19.8825 16.267500000000002 3.615 0 0 0
583 1 19.8825 14.46 5.4225 0 0 0
584 1 18.075000000000003 16.267500000000002 5.4225 0 0 0
585 1 21.69 14.46 3.615 0 0 0
586 1 23.497500000000002 16.267500000000002 3.615 0 0 0
587 1 23.497500000000002 14.46 5.4225 0 0 0
588 1 21.69 16.267500000000002 5.4225 0 0 0
589 1 25.305 14.46 3.615 0 0 0
590 1 27.1125 16.267500000000002 3.615 0 0 0
591 1 27.1125 14.46 5.4225 0 0 0
592 1 25.305 16.267500000000002 5.4225 0 0 0
593 1 28.92 14.46 3.615 0 0 0
594 1 30.727500000000003 16.267500000000002 3.615 0 0 0
595 1 30.727500000000003 14.46 5.4225 0 0 0
596 1 28.92 16.267500000000002 5.4225 0 0 0
597 1 32.535000000000004 14.46 3.615 0 0 0
598 1 34.3425 16.267500000000002 3.615 0 0 0
599 1 34.3425 14.46 5.4225 0 0 0
600 1 32.535000000000004 16.267500000000002 5.4225 0 0 0
601 1 0 18.075000000000003 3.615 0 0 0
602 1 1.8075 19.8825 3.615 0 0 0
603 1 1.8075 18.075000000000003 5.4225 0 0 0
604 1 0 19.8825 5.4225 0 0 0
605 1 3.615 18.075000000000003 3.615 0 0 0
606 1 5.4225 19.8825 3.615 0 0 0
607 1 5.4225 18.075000000000003 5.4225 0 0 0
608 1 3.615 19.8825 5.4225 0 0 0
609 1 7.23 18.075000000000003 3.615 0 0 0
610 1 9.037500000000001 19.8825 3.615 0 0 0
611 1 9.037500000000001 18.075000000000003 5.4225 0 0 0
612 1 7.23 19.8825 5.4225 0 0 0
613 1 10.845 18.075000000000003 3.615 0 0 0
614 1 12.6525 19.8825 3.615 0 0 0
615 1 12.6525 18.075000000000003 5.4225 0 0 0
616 1 10.845 19.8825 5.4225 0 0 0
617 1 14.46 18.075000000000003 3.615 0 0 0
618 1 16.267500000000002 19.8825 3.615 0 0 0
619 1 16.267500000000002 18.075000000000003 5.4225 0 0 0
620 1 14.46 19.8825 5.4225 0 0 0
621 1 18.075000000000003 18.075000000000003 3.615 0 0 0
622 1 19.8825 19.8825 3.615 0 0 0
623 1 19.8825 18.075000000000003 5.4225 0 0 0
624 1 18.075000000000003 19.8825 5.4225 0 0 0
625 1 21.69 18.075000000000003 3.615 0 0 0
626 1 23.497500000000002 19.8825 3.615 0 0 0
627 1 23.497500000000002 18.075000000000003 5.4225 0 0 0
628 1 21.69 19.8825 5.4225 0 0 0
629 1 25.305 18.075000000000003 3.615 0 0 0
630 1 27.1125 19.8825 3.615 0 0 0
631 1 27.1125 18.075000000000003 5.4225 0 0 0
632 1 25.305 19.8825 5.4225 0 0 0
633 1 28.92 18.075000000000003 3.615 0 0 0
634 1 30.727500000000003 19.8825 3.615 0 0 0
635 1 30.727500000000003 18.075000000000003 5.4225 0 0 0
636 1 28.92 19.8825 5.4225 0 0 0
637 1 32.535000000000004 18.075000000000003 3.615 0 0 0
638 1 34.3425 19.8825 3.615 0 0 0
639 1 34.3425 18.075000000000003 5.4225 0 0 0
640 1 32.535000000000004 19.8825 5.4225 0 0 0
641 1 0 21.69 3.615 0 0 0
642 1 1.8075 23.497500000000002 3.615 0 0 0
643 1 1.8075 21.69 5.4225 0 0 0
644 1 0 23.497500000000002 5.4225 0 0 0
645 1 3.615 21.69 3.615 0 0 0
646 1 5.4225 23.497500000000002 3.615 0 0 0
647 1 5.4225 21.69 5.4225 0 0 0
648 1 3.615 23.497500000000002 5.4225 0 0 0
649 1 7.23 21.69 3.615 0 0 0
650 1 9.037500000000001 23.497500000000002 3.615 0 0 0
651 1 9.037500000000001 21.69 5.4225 0 0 0
652 1 7.23 23.497500000000002 5.4225 0 0 0
653 1 10.845 21.69 3.615 0 0 0
654 1 12.6525 23.497500000000002 3.615 0 0 0
655 1 12.6525 21.69 5.4225 0 0 0
656 1 10.845 23.497500000000002 5.4225 0 0 0
657 1 14.46 21.69 3.615 0 0 0
658 1 16.267500000000002 23.497500000000002 3.615 0 0 0
659 1 16.267500000000002 21.69 5.4225 0 0 0
660 1 14.46 23.497500000000002 5.4225 0 0 0
661 1 18.075000000000003 21.69 3.615 0 0 0
662 1 19.8825 23.497500000000002 3.615 0 0 0
663 1 19.8825 21.69 5.4225 0 0 0
664 1 18.075000000000003 23.497500000000002 5.4225 0 0 0
665 1 21.69 21.69 3.615 0 0 0
666 1 23.497500000000002 23.497500000000002 3.615 0 0 0
667 1 23.497500000000002 21.69 5.4225 0 0 0
668 1 21.69 23.497500000000002 5.4225 0 0 0
669 1 25.305 21.69 3.615 0 0 0
670 1 27.1125 23.497500000000002 3.615 0 0 0
671 1 27.1125 21.69 5.4225 0 0 0
672 1 25.305 23.497500000000002 5.4225 0 0 0
673 1 28.92 21.69 3.615 0 0 0
674 1 30.727500000000003 23.497500000000002 3.615 0 0 0
675 1 30.727500000000003 21.69 5.4225 0 0 0
676 1 28.92 23.497500000000002 5.4225 0 0 0
677 1 32.535000000000004 21.69 3.615 0 0 0
678 1 34.3425 23.497500000000002 3.615 0 0 0
679 1 34.3425 21.69 5.4225 0 0 0
680 1 32.535000000000004 23.497500000000002 5.4225 0 0 0
681 1 0 25.305 3.615 0 0 0
682 1 1.8075 27.1125 3.615 0 0 0
683 1 1.8075 25.305 5.4225 0 0 0
684 1 0 27.1125 5.4225 0 0 0
685 1 3.615 25.305 3.615 0 0 0
686 1 5.4225 27.1125 3.615 0 0 0
687 1 5.4225 25.305 5.4225 0 0 0
688 1 3.615 27.1125 5.4225 0 0 0
689 1 7.23 25.305 3.615 0 0 0
690 1 9.037500000000001 27.1125 3.615 0 0 0
691 1 9.037500000000001 25.305 5.4225 0 0 0
692 1 7.23 27.1125 5.4225 0 0 0
693 1 10.845 25.305 3.615 0 0 0
694 1 12.6525 27.1125 3.615 0 0 0
695 1 12.6525 25.305 5.4225 0 0 0
696 1 10.845 27.1125 5.4225 0 0 0
697 1 14.46 25.305 3.615 0 0 0
698 1 16.267500000000002 27.1125 3.615 0 0 0
699 1 16.267500000000002 25.305 5.4225 0 0 0
700 1 14.46 27.1125 5.4225 0 0 0
701 1 18.075000000000003 25.305 3.615 0 0 0
702 1 19.8825 27.1125 3.615 0 0 0
703 1 19.8825 25.305 5.4225 0 0 0
704 1 18.075000000000003 27.1125 5.4225 0 0 0
705 1 21.69 25.305 3.615 0 0 0
706 1 23.497500000000002 27.1125 3.615 0 0 0
707 1 23.497500000000002 25.305 5.4225 0 0 0
708 1 21.69 27.1125 5.4225 0 0 0
709 1 25.305 25.305 3.615 0 0 0
710 1 27.1125 27.1125 3.615 0 0 0
711 1 27.1125 25.305 5.4225 0 0 0
712 1 25.305 27.1125 5.4225 0 0 0
713 1 28.92 25.305 3.615 0 0 0
714 1 30.727500000000003 27.1125 3.615 0 0 0
715 1 30.727500000000003 25.305 5.4225 0 0 0
716 1 28.92 27.1125 5.4225 0 0 0
717 1 32.535000000000004 25.305 3.615 0 0 0
718 1 34.3425 27.1125 3.615 0 0 0
719 1 34.3425 25.305 5.4225 0 0 0
720 1 32.535000000000004 27.1125 5.4225 0 0 0
721 1 0 28.92 3.615 0 0 0
722 1 1.8075 30.727500000000003 3.615 0 0 0
723 1 1.8075 28.92 5.4225 0 0 0
724 1 0 30.727500000000003 5.4225 0 0 0
725 1 3.615 28.92 3.615 0 0 0
726 1 5.4225 30.727500000000003 3.615 0 0 0
727 1 5.4225 28.92 5.4225 0 0 0
728 1 3.615 30.727500000000003 5.4225 0 0 0
729 1 7.23 28.92 3.615 0 0 0
730 1 9.037500000000001 30.727500000000003 3.615 0 0 0
731 1 9.037500000000001 28.92 5.4225 0 0 0
732 1 7.23 30.727500000000003 5.4225 0 0 0
733 1 10.845 28.92 3.615 0 0 0
734 1 12.6525 30.727500000000003 3.615 0 0 0
735 1 12.6525 28.92 5.4225 0 0 0
736 1 10.845 30.727500000000003 5.4225 0 0 0
737 1 14.46 28.92 3.615 0 0 0
738 1 16.267500000000002 30.727500000000003 3.615 0 0 0
739 1 16.267500000000002 28.92 5.4225 0 0 0
740 1 14.46 30.727500000000003 5.4225 0 0 0
741 1 18.075000000000003 28.92 3.615 0 0 0
742 1 19.8825 30.727500000000003 3.615 0 0 0
743 1 19.8825 28.92 5.4225 0 0 0
744 1 18.075000000000003 30.727500000000003 5.4225 0 0 0
745 1 21.69 28.92 3.615 0 0 0
746 1 23.497500000000002 30.727500000000003 3.615 0 0 0
747 1 23.497500000000002 28.92 5.4225 0 0 0
748 1 21.69 30.727500000000003 5.4225 0 0 0
749 1 25.305 28.92 3.615 0 0 0
750 1 27.1125 30.727500000000003 3.615 0 0 0
751 1 27.1125 28.92 5.4225 0 0 0
752 1 25.305 30.727500000000003 5.4225 0 0 0
753 1 28.92 28.92 3.615 0 0 0
754 1 30.727500000000003 30.727500000000003 3.615 0 0 0
755 1 30.727500000000003 28.92 5.4225 0 0 0
756 1 28.92 30.727500000000003 5.4225 0 0 0
757 1 32.535000000000004 28.92 3.615 0 0 0
758 1 34.3425 30.727500000000003 3.615 0 0 0
759 1 34.3425 28.92 5.4225 0 0 0
760 1 32.535000000000004 30.727500000000003 5.4225 0 0 0
761 1 0 32.535000000000004 3.615 0 0 0
762 1 1.8075 34.3425 3.615 0 0 0
763 1 1.8075 32.535000000000004 5.4225 0 0 0
764 1 0 34.3425 5.4225 0 0 0
765 1 3.615 32.535000000000004 3.615 0 0 0
766 1 5.4225 34.3425 3.615 0 0 0
767 1 5.4225 32.535000000000004 5.4225 0 0 0
768 1 3.615 34.3425 5.4225 0 0 0
769 1 7.23 32.535000000000004 3.615 0 0 0
770 1 9.037500000000001 34.3425 3.615 0 0 0
771 1 9.037500000000001 32.535000000000004 5.4225 0 0 0
772 1 7.23 34.3425 5.4225 0 0 0
773 1 10.845 32.535000000000004 3.615 0 0 0
774 1 12.6525 34.3425 3.615 0 0 0
775 1 12.6525 32.535000000000004 5.4225 0 0 0
776 1 10.845 34.3425 5.4225 0 0 0
777 1 14.46 32.535000000000004 3.615 0 0 0
778 1 16.267500000000002 34.3425 3.615 0 0 0
779 1 16.267500000000002 32.535000000000004 5.4225 0 0 0
780 1 14.46 34.3425 5.4225 0 0 0
781 1 18.075000000000003 32.535000000000004 3.615 0 0 0
782 1 19.8825 34.3425 3.615 0 0 0
783 1 19.8825 32.535000000000004 5.4225 0 0 0
784 1 18.075000000000003 34.3425 5.4225 0 0 0
785 1 21.69 32.535000000000004 3.615 0 0 0
786 1 23.497500000000002 34.3425 3.615 0 0 0
787 1 23.497500000000002 32.535000000000004 5.4225 0 0 0
788 1 21.69 34.3425 5.4225 0 0 0
789 1 25.305 32.535000000000004 3.615 0 0 0
790 1 27.1125 34.3425 3.615 0 0 0
791 1 27.1125 32.535000000000004 5.4225 0 0 0
792 1 25.305 34.3425 5.4225 0 0 0
793 1 28.92 32.535000000000004 3.615 0 0 0
794 1 30.727500000000003 34.3425 3.615 0 0 0
795 1 30.727500000000003 32.535000000000004 5.4225 0 0 0
796 1 28.92 34.3425 5.4225 0 0 0
797 1 32.535000000000004 32.535000000000004 3.615 0 0 0
798 1 34.3425 34.3425 3.615 0 0 0
799 1 34.3425 32.535000000000004 5.4225 0 0 0
800 1 32.535000000000004 34.3425 5.4225 0 0 0
801 1 0 0 7.23 0 0 0
802 1 1.8075 1.8075 7.23 0 0 0
803 1 1.8075 0 9.037500000000001 0 0 0
804 1 0 1.8075 9.037500000000001 0 0 0
805 1 3.615 0 7.23 0 0 0
806 1 5.4225 1.8075 7.23 0 0 0
807 1 5.4225 0 9.037500000000001 0 0 0
808 1 3.615 1.8075 9.037500000000001 0 0 0
809 1 7.23 0 7.23 0 0 0
810 1 9.037500000000001 1.8075 7.23 0 0 0
811 1 9.037500000000001 0 9.037500000000001 0 0 0
812 1 7.23 1.8075 9.037500000000001 0 0 0
813 1 10.845 0 7.23 0 0 0
814 1 12.6525 1.8075 7.23 0 0 0
815 1 12.6525 0 9.037500000000001 0 0 0
816 1 10.845 1.8075 9.037500000000001 0 0 0
817 1 14.46 0 7.23 0 0 0
818 1 16.267500000000002 1.8075 7.23 0 0 0
819 1 16.267500000000002 0 9.037500000000001 0 0 0
820 1 14.46 1.8075 9.037500000000001 0 0 0
821 1 18.075000000000003 0 7.23 0 0 0
822 1 19.8825 1.8075 7.23 0 0 0
823 1 19.8825 0 9.037500000000001 0 0 0
824 1 18.075000000000003 1.8075 9.037500000000001 0 0 0
825 1 21.69 0 7.23 0 0 0
826 1 23.497500000000002 1.8075 7.23 0 0 0
827 1 23.497500000000002 0 9.037500000000001 0 0 0
828 1 21.69 1.8075 9.037500000000001 0 0 0
829 1 25.305 0 7.23 0 0 0
830 1 27.1125 1.8075 7.23 0 0 0
831 1 27.1125 0 9.037500000000001 0 0 0
832 1 25.305 1.8075 9.037500000000001 0 0 0
833 1 28.92 0 7.23 0 0 0
834 1 30.727500000000003 1.8075 7.23 0 0 0
835 1 30.727500000000003 0 9.037500000000001 0 0 0
836 1 28.92 1.8075 9.037500000000001 0 0 0
837 1 32.535000000000004 0 7.23 0 0 0
838 1 34.3425 1.8075 7.23 0 0 0
839 1 34.3425 0 9.037500000000001 0 0 0
840 1 32.535000000000004 1.8075 9.037500000000001 0 0 0
841 1 0 3.615 7.23 0 0 0
842 1 1.8075 5.4225 7.23 0 0 0
843 1 1.8075 3.615 9.037500000000001 0 0 0
844 1 0 5.4225 9.037500000000001 0 0 0
845 1 3.615 3.615 7.23 0 0 0
846 1 5.4225 5.4225 7.23 0 0 0
847 1 5.4225 3.615 9.037500000000001 0 0 0
848 1 3.615 5.4225 9.037500000000001 0 0 0
849 1 7.23 3.615 7.23 0 0 0
850 1 9.037500000000001 5.4225 7.23 0 0 0
851 1 9.037500000000001 3.615 9.037500000000001 0 0 0
852 1 7.23 5.4225 9.037500000000001 0 0 0
853 1 10.845 3.615 7.23 0 0 0
854 1 12.6525 5.4225 7.23 0 0 0
855 1 12.6525 3.615 9.037500000000001 0 0 0
856 1 10.845 5.4225 9.037500000000001 0 0 0
857 1 14.46 3.615 7.23 0 0 0
858 1 16.267500000000002 5.4225 7.23 0 0 0
859 1 16.267500000000002 3.615 9.037500000000001 0 0 0
860 1 14.46 5.4225 9.037500000000001 0 0 0
861 1 18.075000000000003 3.615 7.23 0 0 0
862 1 19.8825 5.4225 7.23 0 0 0
863 1 19.8825 3.615 9.037500000000001 0 0 0
864 1 18.075000000000003 5.4225 9.037500000000001 0 0 0
865 1 21.69 3.615 7.23 0 0 0
866 1 23.497500000000002 5.4225 7.23 0 0 0
867 1 23.497500000000002 3.615 9.037500000000001 0 0 0
868 1 21.69 5.4225 9.037500000000001 0 0 0
869 1 25.305 3.615 7.23 0 0 0
870 1 27.1125 5.4225 7.23 0 0 0
871 1 27.1125 3.615 9.037500000000001 0 0 0
872 1 25.305 5.4225 9.037500000000001 0 0 0
873 1 28.92 3.615 7.23 0 0 0
874 1 30.727500000000003 5.4225 7.23 0 0 0
875 1 30.727500000000003 3.615 9.037500000000001 0 0 0
876 1 28.92 5.4225 9.037500000000001 0 0 0
877 1 32.535000000000004 3.615 7.23 0 0 0
878 1 34.3425 5.4225 7.23 0 0 0
879 1 34.3425 3.615 9.037500000000001 0 0 0
880 1 32.535000000000004 5.4225 9.037500000000001 0 0 0
881 1 0 7.23 7.23 0 0 0
882 1 1.8075 9.037500000000001 7.23 0 0 0
883 1 1.8075 7.23 9.037500000000001 0 0 0
884 1 0 9.037500000000001 9.037500000000001 0 0 0
885 1 3.615 7.23 7.23 0 0 0
886 1 5.4225 9.037500000000001 7.23 0 0 0
887 1 5.4225 7.23 9.037500000000001 0 0 0
888 1 3.615 9.037500000000001 9.037500000000001 0 0 0
889 1 7.23 7.23 7.23 0 0 0
890 1 9.037500000000001 9.037500000000001 7.23 0 0 0
891 1 9.037500000000001 7.23 9.037500000000001 0 0 0
892 1 7.23 9.037500000000001 9.037500000000001 0 0 0
893 1 10.845 7.23 7.23 0 0 0
894 1 12.6525 9.037500000000001 7.23 0 0 0
895 1 12.6525 7.23 9.037500000000001 0 0 0
896 1 10.845 9.037500000000001 9.037500000000001 0 0 0
897 1 14.46 7.23 7.23 0 0 0
898 1 16.267500000000002 9.037500000000001 7.23 0 0 0
899 1 16.267500000000002 7.23 9.037500000000001 0 0 0
900 1 14.46 9.037500000000001 9.037500000000001 0 0 0
901 1 18.075000000000003 7.23 7.23 0 0 0
902 1 19.8825 9.037500000000001 7.23 0 0 0
903 1 19.8825 7.23 9.037500000000001 0 0 0
904 1 18.075000000000003 9.037500000000001 9.037500000000001 0 0 0
905 1 21.69 7.23 7.23 0 0 0
906 1 23.497500000000002 9.037500000000001 7.23 0 0 0
907 1 23.497500000000002 7.23 9.037500000000001 0 0 0
908 1 21.69 9.037500000000001 9.037500000000001 0 0 0
909 1 25.305 7.23 7.23 0 0 0
910 1 27.1125 9.037500000000001 7.23 0 0 0
911 1 27.1125 7.23 9.037500000000001 0 0 0
912 1 25.305 9.037500000000001 9.037500000000001 0 0 0
913 1 28.92 7.23 7.23 0 0 0
914 1 30.727500000000003 9.037500000000001 7.23 0 0 0
915 1 30.727500000000003 7.23 9.037500000000001 0 0 0
916 1 28.92 9.037500000000001 9.037500000000001 0 0 0
917 1 32.535000000000004 7.23 7.23 0 0 0
918 1 34.3425 9.037500000000001 7.23 0 0 0
919 1 34.3425 7.23 9.037500000000001 0 0 0
920 1 32.535000000000004 9.037500000000001 9.037500000000001 0 0 0
921 1 0 10.845 7.23 0 0 0
922 1 1.8075 12.6525 7.23 0 0 0
923 1 1.8075 10.845 9.037500000000001 0 0 0
924 1 0 12.6525 9.037500000000001 0 0 0
925 1 3.615 10.845 7.23 0 0 0
926 1 5.4225 12.6525 7.23 0 0 0
927 1 5.4225 10.845 9.037500000000001 0 0 0
928 1 3.615 12.6525 9.037500000000001 0 0 0
929 1 7.23 10.845 7.23 0 0 0
930 1 9.037500000000001 12.6525 7.23 0 0 0
931 1 9.037500000000001 10.845 9.037500000000001 0 0 0
932 1 7.23 12.6525 9.037500000000001 0 0 0
933 1 10.845 10.845 7.23 0 0 0
934 1 12.6525 12.6525 7.23 0 0 0
935 1 12.6525 10.845 9.037500000000001 0 0 0
936 1 10.845 12.6525 9.037500000000001 0 0 0
937 1 14.46 10.845 7.23 0 0 0
938 1 16.267500000000002 12.6525 7.23 0 0 0
939 1 16.267500000000002 10.845 9.037500000000001 0 0 0
940 1 14.46 12.6525 9.037500000000001 0 0 0
941 1 18.075000000000003 10.845 7.23 0 0 0
942 1 19.8825 12.6525 7.23 0 0 0
943 1 19.8825 10.845 9.037500000000001 0 0 0
944 1 18.075000000000003 12.6525 9.037500000000001 0 0 0
945 1 21.69 10.845 7.23 0 0 0
946 1 23.497500000000002 12.6525 7.23 0 0 0
947 1 23.497500000000002 10.845 9.037500000000001 0 0 0
948 1 21.69 12.6525 9.037500000000001 0 0 0
949 1 25.305 10.845 7.23 0 0 0
950 1 27.1125 12.6525 7.23 0 0 0
951 1 27.1125 10.845 9.037500000000001 0 0 0
952 1 25.305 12.6525 9.037500000000001 0 0 0
953 1 28.92 10.845 7.23 0 0 0
954 1 30.727500000000003 12.6525 7.23 0 0 0
955 1 30.727500000000003 10.845 9.037500000000001 0 0 0
956 1 28.92 12.6525 9.037500000000001 0 0 0
957 1 32.535000000000004 10.845 7.23 0 0 0
958 1 34.3425 12.6525 7.23 0 0 0
959 1 34.3425 10.845 9.037500000000001 0 0 0
960 1 32.535000000000004 12.6525 9.037500000000001 0 0 0
961 1 0 14.46 7.23 0 0 0
962 1 1.8075 16.267500000000002 7.23 0 0 0
963 1 1.8075 14.46 9.037500000000001 0 0 0
964 1 0 16.267500000000002 9.037500000000001 0 0 0
965 1 3.615 14.46 7.23 0 0 0
966 1 5.4225 16.267500000000002 7.23 0 0 0
967 1 5.4225 14.46 9.037500000000001 0 0 0
968 1 3.615 16.267500000000002 9.037500000000001 0 0 0
969 1 7.23 14.46 7.23 0 0 0
970 1 9.037500000000001 16.267500000000002 7.23 0 0 0
971 1 9.037500000000001 14.46 9.037500000000001 0 0 0
972 1 7.23 16.267500000000002 9.037500000000001 0 0 0
973 1 10.845 14.46 7.23 0 0 0
974 1 12.6525 16.267500000000002 7.23 0 0 0
975 1 12.6525 14.46 9.037500000000001 0 0 0
976 1 10.845 16.267500000000002 9.037500000000001 0 0 0
977 1 14.46 14.46 7.23 0 0 0
978 1 16.267500000000002 16.267500000000002 7.23 0 0 0
979 1 16.267500000000002 14.46 9.037500000000001 0 0 0
980 1 14.46 16.267500000000002 9.037500000000001 0 0 0
981 1 18.075000000000003 14.46 7.23 0 0 0
982 1 19.8825 16.267500000000002 7.23 0 0 0
983 1 19.8825 14.46 9.037500000000001 0 0 0
984 1 18.075000000000003 16.267500000000002 9.037500000000001 0 0 0
985 1 21.69 14.46 7.23 0 0 0
986 1 23.497500000000002 16.267500000000002 7.23 0 0 0
987 1 23.497500000000002 14.46 9.037500000000001 0 0 0
988 1 21.69 16.267500000000002 9.037500000000001 0 0 0
989 1 25.305 14.46 7.23 0 0 0
990 1 27.1125 16.267500000000002 7.23 0 0 0
991 1 27.1125 14.46 9.037500000000001 0 0 0
992 1 25.305 16.267500000000002 9.037500000000001 0 0 0
993 1 28.92 14.46 7.23 0 0 0
994 1 30.727500000000003 16.267500000000002 7.23 0 0 0
995 1 30.727500000000003 14.46 9.037500000000001 0 0 0
996 1 28.92 16.267500000000002 9.037500000000001 0 0 0
997 1 32.535000000000004 14.46 7.23 0 0 0
998 1 34.3425 16.267500000000002 7.23 0 0 0
999 1 34.3425 14.46 9.037500000000001 0 0 0
1000 1 32.535000000000004 16.267500000000002 9.037500000000001 0 0 0
1001 1 0 18.075000000000003 7.23 0 0 0
1002 1 1.8075 19.8825 7.23 0 0 0
1003 1 1.8075 18.075000000000003 9.037500000000001 0 0 0
1004 1 0 19.8825 9.037500000000001 0 0 0
1005 1 3.615 18.075000000000003 7.23 0 0 0
1006 1 5.4225 19.8825 7.23 0 0 0
1007 1 5.4225 18.075000000000003 9.037500000000001 0 0 0
1008 1 3.615 19.8825 9.037500000000001 0 0 0
1009 1 7.23 18.075000000000003 7.23 0 0 0
1010 1 9.037500000000001 19.8825 7.23 0 0 0
1011 1 9.037500000000001 18.075000000000003 9.037500000000001 0 0 0
1012 1 7.23 19.8825 9.037500000000001 0 0 0
1013 1 10.845 18.075000000000003 7.23 0 0 0
1014 1 12.6525 19.8825 7.23 0 0 0
1015 1 12.6525 18.075000000000003 9.037500000000001 0 0 0
1016 1 10.845 19.8825 9.037500000000001 0 0 0
1017 1 14.46 18.075000000000003 7.23 0 0 0
1018 1 16.267500000000002 19.8825 7.23 0 0 0
1019 1 16.267500000000002 18.075000000000003 9.037500000000001 0 0 0
1020 1 14.46 19.8825 9.037500000000001 0 0 0
1021 1 18.075000000000003 18.075000000000003 7.23 0 0 0
1022 1 19.8825 19.8825 7.23 0 0 0
1023 1 19.8825 18.075000000000003 9.037500000000001 0 0 0
1024 1 18.075000000000003 19.8825 9.037500000000001 0 0 0
1025 1 21.69 18.075000000000003 7.23 0 0 0
1026 1 23.497500000000002 19.8825 7.23 0 0 0
1027 1 23.497500000000002 18.075000000000003 9.037500000000001 0 0 0
1028 1 21.69 19.8825 9.037500000000001 0 0 0
1029 1 25.305 18.075000000000003 7.23 0 0 0
1030 1 27.1125 19.8825 7.23 0 0 0
1031 1 27.1125 18.075000000000003 9.037500000000001 0 0 0
1032 1 25.305 19.8825 9.037500000000001 0 0 0
1033 1 28.92 18.075000000000003 7.23 0 0 0
1034 1 30.727500000000003 19.8825 7.23 0 0 0
1035 1 30.727500000000003 18.075000000000003 9.037500000000001 0 0 0
1036 1 28.92 19.8825 9.037500000000001 0 0 0
1037 1 32.535000000000004 18.075000000000003 7.23 0 0 0
1038 1 34.3425 19.8825 7.23 0 0 0
1039 1 34.3425 18.075000000000003 9.037500000000001 0 0 0
1040 1 32.535000000000004 19.8825 9.037500000000001 0 0 0
1041 1 0 21.69 7.23 0 0 0
1042 1 1.8075 23.497500000000002 7.23 0 0 0
1043 1 1.8075 21.69 9.037500000000001 0 0 0
1044 1 0 23.497500000000002 9.037500000000001 0 0 0
1045 1 3.615 21.69 7.23 0 0 0
1046 1 5.4225 23.497500000000002 7.23 0 0 0
1047 1 5.4225 21.69 9.037500000000001 0 0 0
1048 1 3.615 23.497500000000002 9.037500000000001 0 0 0
1049 1 7.23 21.69 7.23 0 0 0
1050 1 9.037500000000001 23.497500000000002 7.23 0 0 0
1051 1 9.037500000000001 21.69 9.037500000000001 0 0 0
1052 1 7.23 23.497500000000002 9.037500000000001 0 0 0
1053 1 10.845 21.69 7.23 0 0 0
1054 1 12.6525 23.497500000000002 7.23 0 0 0
1055 1 12.6525 21.69 9.037500000000001 0 0 0
1056 1 10.845 23.497500000000002 9.037500000000001 0 0 0
1057 1 14.46 21.69 7.23 0 0 0
1058 1 16.267500000000002 23.497500000000002 7.23 0 0 0
1059 1 16.267500000000002 21.69 9.037500000000001 0 0 0
1060 1 14.46 23.497500000000002 9.037500000000001 0 0 0
1061 1 18.075000000000003 21.69 7.23 0 0 0
1062 1 19.8825 23.497500000000002 7.23 0 0 0
1063 1 19.8825 21.69 9.037500000000001 0 0 0
1064 1 18.075000000000003 23.497500000000002 9.037500000000001 0 0 0
1065 1 21.69 21.69 7.23 0 0 0
1066 1 23.497500000000002 23.497500000000002 7.23 0 0 0
1067 1 23.497500000000002 21.69 9.037500000000001 0 0 0
1068 1 21.69 23.497500000000002 9.037500000000001 0 0 0
1069 1 25.305 21.69 7.23 0 0 0
1070 1 27.1125 23.497500000000002 7.23 0 0 0
1071 1 27.1125 21.69 9.037500000000001 0 0 0
1072 1 25.305 23.497500000000002 9.037500000000001 0 0 0
1073 1 28.92 21.69 7.23 0 0 0
1074 1 30.727500000000003 23.497500000000002 7.23 0 0 0
1075 1 30.727500000000003 21.69 9.037500000000001 0 0 0
1076 1 28.92 23.497500000000002 9.037500000000001 0 0 0
1077 1 32.535000000000004 21.69 7.23 0 0 0
1078 1 34.3425 23.497500000000002 7.23 0 0 0
1079 1 34.3425 21.69 9.037500000000001 0 0 0
1080 1 32.535000000000004 23.497500000000002 9.037500000000001 0 0 0
1081 1 0 25.305 7.23 0 0 0
1082 1 1.8075 27.1125 7.23 0 0 0
1083 1 1.8075 25.305 9.037500000000001 0 0 0
1084 1 0 27.1125 9.037500000000001 0 0 0
1085 1 3.615 25.305 7.23 0 0 0
1086 1 5.4225 27.1125 7.23 0 0 0
1087 1 5.4225 25.305 9.037500000000001 0 0 0
1088 1 3.615 27.1125 9.037500000000001 0 0 0
1089 1 7.23 25.305 7.23 0 0 0
1090 1 9.037500000000001 27.1125 7.23 0 0 0
1091 1 9.037500000000001 25.305 9.037500000000001 0 0 0
1092 1 7.23 27.1125 9.037500000000001 0 0 0
1093 1 10.845 25.305 7.23 0 0 0
1094 1 12.6525 27.1125 7.23 0 0 0
1095 1 12.6525 25.305 9.037500000000001 0 0 0
1096 1 10.845 27.1125 9.037500000000001 0 0 0
1097 1 14.46 25.305 7.23 0 0 0
1098 1 16.267500000000002 27.1125 7.23 0 0 0
1099 1 16.267500000000002 25.305 9.037500000000001 0 0 0
1100 1 14.46 27.1125 9.037500000000001 0 0 0
1101 1 18.075000000000003 25.305 7.23 0 0 0
1102 1 19.8825 27.1125 7.23 0 0 0
1103 1 19.8825 25.305 9.037500000000001 0 0 0
1104 1 18.075000000000003 27.1125 9.037500000000001 0 0 0
1105 1 21.69 25.305 7.23 0 0 0
1106 1 23.497500000000002 27.1125 7.23 0 0 0
1107 1 23.497500000000002 25.305 9.037500000000001 0 0 0
1108 1 21.69 27.1125 9.037500000000001 0 0 0
1109 1 25.305 25.305 7.23 0 0 0
1110 1 27.1125 27.1125 7.23 0 0 0
1111 1 27.1125 25.305 9.037500000000001 0 0 0
1112 1 25.305 27.1125 9.037500000000001 0 0 0
1113 1 28.92 25.305 7.23 0 0 0
1114 1 30.727500000000003 27.1125 7.23 0 0 0
1115 1 30.727500000000003 25.305 9.037500000000001 0 0 0
1116 1 28.92 27.1125 9.037500000000001 0 0 0
1117 1 32.535000000000004 25.305 7.23 0 0 0
1118 1 34.3425 27.1125 7.23 0 0 0
1119 1 34.3425 25.305 9.037500000000001 0 0 0
1120 1 32.535000000000004 27.1125 9.037500000000001 0 0 0
1121 1 0 28.92 7.23 0 0 0
1122 1 1.8075 30.727500000000003 7.23 0 0 0
1123 1 1.8075 28.92 9.037500000000001 0 0 0
1124 1 0 30.727500000000003 9.037500000000001 0 0 0
1125 1 3.615 28.92 7.23 0 0 0
1126 1 5.4225 30.727500000000003 7.23 0 0 0
1127 1 5.4225 28.92 9.037500000000001 0 0 0
1128 1 3.615 30.727500000000003 9.037500000000001 0 0 0
1129 1 7.23 28.92 7.23 0 0 0
1130 1 9.037500000000001 30.727500000000003 7.23 0 0 0
1131 1 9.037500000000001 28.92 9.037500000000001 0 0 0
1132 1 7.23 30.727500000000003 9.037500000000001 0 0 0
1133 1 10.845 28.92 7.23 0 0 0
1134 1 12.6525 30.727500000000003 7.23 0 0 0
1135 1 12.6525 28.92 9.037500000000001 0 0 0
1136 1 10.845 30.727500000000003 9.037500000000001 0 0 0
1137 1 14.46 28.92 7.23 0 0 0
1138 1 16.267500000000002 30.727500000000003 7.23 0 0 0
1139 1 16.267500000000002 28.92 9.037500000000001 0 0 0
1140 1 14.46 30.727500000000003 9.037500000000001 0 0 0
1141 1 18.075000000000003 28.92 7.23 0 0 0
1142 1 19.8825 30.727500000000003 7.23 0 0 0
1143 1 19.8825 28.92 9.037500000000001 0 0 0
1144 1 18.075000000000003 30.727500000000003 9.037500000000001 0 0 0
1145 1 21.69 28.92 7.23 0 0 0
1146 1 23.497500000000002 30.727500000000003 7.23 0 0 0
1147 1 23.497500000000002 28.92 9.037500000000001 0 0 0
1148 1 21.69 30.727500000000003 9.037500000000001 0 0 0
1149 1 25.305 28.92 7.23 0 0 0
1150 1 27.1125 30.727500000000003 7.23 0 0 0
1151 1 27.1125 28.92 9.037500000000001 0 0 0
1152 1 25.305 30.727500000000003 9.037500000000001 0 0 0
1153 1 28.92 28.92 7.23 0 0 0
1154 1 30.727500000000003 30.727500000000003 7.23 0 0 0
1155 1 30.727500000000003 28.92 9.037500000000001 0 0 0
1156 1 28.92 30.727500000000003 9.037500000000001 0 0 0
1157 1 32.535000000000004 28.92 7.23 0 0 0
1158 1 34.3425 30.727500000000003 7.23 0 0 0
1159 1 34.3425 28.92 9.037500000000001 0 0 0
1160 1 32.535000000000004 30.727500000000003 9.037500000000001 0 0 0
1161 1 0 32.535000000000004 7.23 0 0 0
1162 1 1.8075 34.3425 7.23 0 0 0
1163 1 1.8075 32.535000000000004 9.037500000000001 0 0 0
1164 1 0 34.3425 9.037500000000001 0 0 0
1165 1 3.615 32.535000000000004 7.23 0 0 0
1166 1 5.4225 34.3425 7.23 0 0 0
1167 1 5.4225 32.535000000000004 9.037500000000001 0 0 0
1168 1 3.615 34.3425 9.037500000000001 0 0 0
1169 1 7.23 32.535000000000004 7.23 0 0 0
1170 1 9.037500000000001 34.3425 7.23 0 0 0
1171 1 9.037500000000001 32.535000000000004 9.037500000000001 0 0 0
1172 1 7.23 34.3425 9.037500000000001 0 0 0
1173 1 10.845 32.535000000000004 7.23 0 0 0
1174 1 12.6525 34.3425 7.23 0 0 0
1175 1 12.6525 32.535000000000004 9.037500000000001 0 0 0
1176 1 10.845 34.3425 9.037500000000001 0 0 0
1177 1 14.46 32.535000000000004 7.23 0 0 0
1178 1 16.267500000000002 34.3425 7.23 0 0 0
1179 1 16.267500000000002 32.535000000000004 9.037500000000001 0 0 0
1180 1 14.46 34.3425 9.037500000000001 0 0 0
1181 1 18.075000000000003 32.535000000000004 7.23 0 0 0
1182 1 19.8825 34.3425 7.23 0 0 0
1183 1 19.8825 32.535000000000004 9.037500000000001 0 0 0
1184 1 18.075000000000003 34.3425 9.037500000000001 0 0 0
1185 1 21.69 32.535000000000004 7.23 0 0 0
1186 1 23.497500000000002 34.3425 7.23 0 0 0
1187 1 23.497500000000002 32.535000000000004 9.037500000000001 0 0 0
1188 1 21.69 34.3425 9.037500000000001 0 0 0
1189 1 25.305 32.535000000000004 7.23 0 0 0
1190 1 27.1125 34.3425 7.23 0 0 0
1191 1 27.1125 32.535000000000004 9.037500000000001 0 0 0
1192 1 25.305 34.3425 9.037500000000001 0 0 0
1193 1 28.92 32.535000000000004 7.23 0 0 0
1194 1 30.727500000000003 34.3425 7.23 0 0 0
1195 1 30.727500000000003 32.535000000000004 9.037500000000001 0 0 0
1196 1 28.92 34.3425 9.037500000000001 0 0 0
1197 1 32.535000000000004 32.535000000000004 7.23 0 0 0
1198 1 34.3425 34.3425 7.23 0 0 0
1199 1 34.3425 32.535000000000004 9.037500000000001 0 0 0
1200 1 32.535000000000004 34.3425 9.037500000000001 0 0 0
1201 1 0 0 10.845 0 0 0
1202 1 1.8075 1.8075 10.845 0 0 0
1203 1 1.8075 0 12.6525 0 0 0
1204 1 0 1.8075 12.6525 0 0 0
1205 1 3.615 0 10.845 0 0 0
1206 1 5.4225 1.8075 10.845 0 0 0
1207 1 5.4225 0 12.6525 0 0 0
1208 1 3.615 1.8075 12.6525 0 0 0
1209 1 7.23 0 10.845 0 0 0
1210 1 9.037500000000001 1.8075 10.845 0 0 0
1211 1 9.037500000000001 0 12.6525 0 0 0
1212 1 7.23 1.8075 12.6525 0 0 0
1213 1 10.845 0 10.845 0 0 0
1214 1 12.6525 1.8075 10.845 0 0 0
1215 1 12.6525 0 12.6525 0 0 0
1216 1 10.845 1.8075 12.6525 0 0 0
1217 1 14.46 0 10.845 0 0 0
1218 1 16.267500000000002 1.8075 10.845 0 0 0
1219 1 16.267500000000002 0 12.6525 0 0 0
1220 1 14.46 1.8075 12.6525 0 0 0
1221 1 18.075000000000003 0 10.845 0 0 0
1222 1 19.8825 1.8075 10.845 0 0 0
1223 1 19.8825 0 12.6525 0 0 0
1224 1 18.075000000000003 1.8075 12.6525 0 0 0
1225 1 21.69 0 10.845 0 0 0
1226 1 23.497500000000002 1.8075 10.845 0 0 0
1227 1 23.497500000000002 0 12.6525 0 0 0
1228 1 21.69 1.8075 12.6525 0 0 0
1229 1 25.305 0 10.845 0 0 0
1230 1 27.1125 1.8075 10.845 0 0 0
1231 1 27.1125 0 12.6525 0 0 0
1232 1 25.305 1.8075 12.6525 0 0 0
1233 1 28.92 0 10.845 0 0 0
1234 1 30.727500000000003 1.8075 10.845 0 0 0
1235 1 30.727500000000003 0 12.6525 0 0 0
1236 1 28.92 1.8075 12.6525 0 0 0
1237 1 32.535000000000004 0 10.845 0 0 0
1238 1 34.3425 1.8075 10.845 0 0 0
1239 1 34.3425 0 12.6525 0 0 0
1240 1 32.535000000000004 1.8075 12.6525 0 0 0
1241 1 0 3.615 10.845 0 0 0
1242 1 1.8075 5.4225 10.845 0 0 0
1243 1 1.8075 3.615 12.6525 0 0 0
1244 1 0 5.4225 12.6525 0 0 0
1245 1 3.615 3.615 10.845 0 0 0
1246 1 5.4225 5.4225 10.845 0 0 0
1247 1 5.4225 3.615 12.6525 0 0 0
1248 1 3.615 5.4225 12.6525 0 0 0
1249 1 7.23 3.615 10.845 0 0 0
1250 1 9.037500000000001 5.4225 10.845 0 0 0
1251 1 9.037500000000001 3.615 12.6525 0 0 0
1252 1 7.23 5.4225 12.6525 0 0 0
1253 1 10.845 3.615 10.845 0 0 0
1254 1 12.6525 5.4225 10.845 0 0 0
1255 1 12.6525 3.615 12.6525 0 0 0
1256 1 10.845 5.4225 12.6525 0 0 0
1257 1 14.46 3.615 10.845 0 0 0
1258 1 16.267500000000002 5.4225 10.845 0 0 0
1259 1 16.267500000000002 3.615 12.6525 0 0 0
1260 1 14.46 5.4225 12.6525 0 0 0
1261 1 18.075000000000003 3.615 10.845 0 0 0
1262 1 19.8825 5.4225 10.845 0 0 0
1263 1 19.8825 3.615 12.6525 0 0 0
1264 1 18.075000000000003 5.4225 12.6525 0 0 0
1265 1 21.69 3.615 10.845 0 0 0
1266 1 23.497500000000002 5.4225 10.845 0 0 0
1267 1 23.497500000000002 3.615 12.6525 0 0 0
1268 1 21.69 5.4225 12.6525 0 0 0
1269 1 25.305 3.615 10.845 0 0 0
1270 1 27.1125 5.4225 10.845 0 0 0
1271 1 27.1125 3.615 12.6525 0 0 0
1272 1 25.305 5.4225 12.6525 0 0 0
1273 1 28.92 3.615 10.845 0 0 0
1274 1 30.727500000000003 5.4225 10.845 0 0 0
1275 1 30.727500000000003 3.615 12.6525 0 0 0
1276 1 28.92 5.4225 12.6525 0 0 0
1277 1 32.535000000000004 3.615 10.845 0 0 0
1278 1 34.3425 5.4225 10.845 0 0 0
1279 1 34.3425 3.615 12.6525 0 0 0
1280 1 32.535000000000004 5.4225 12.6525 0 0 0
1281 1 0 7.23 10.845 0 0 0
1282 1 1.8075 9.037500000000001 10.845 0 0 0
1283 1 1.8075 7.23 12.6525 0 0 0
1284 1 0 9.037500000000001 12.6525 0 0 0
1285 1 3.615 7.23 10.845 0 0 0
1286 1 5.4225 9.037500000000001 10.845 0 0 0
1287 1 5.4225 7.23 12.6525 0 0 0
1288 1 3.615 9.037500000000001 12.6525 0 0 0
1289 1 7.23 7.23 10.845 0 0 0
1290 1 9.037500000000001 9.037500000000001 10.845 0 0 0
1291 1 9.037500000000001 7.23 12.6525 0 0 0
1292 1 7.23 9.037500000000001 12.6525 0 0 0
1293 1 10.845 7.23 10.845 0 0 0
1294 1 12.6525 9.037500000000001 10.845 0 0 0
1295 1 12.6525 7.23 12.6525 0 0 0
1296 1 10.845 9.037500000000001 12.6525 0 0 0
1297 1 14.46 7.23 10.845 0 0 0
1298 1 16.267500000000002 9.037500000000001 10.845 0 0 0
1299 1 16.267500000000002 7.23 12.6525 0 0 0
1300 1 14.46 9.037500000000001 12.6525 0 0 0
1301 1 18.075000000000003 7.23 10.845 0 0 0
1302 1 19.8825 9.037500000000001 10.845 0 0 0
1303 1 19.8825 7.23 12.6525 0 0 0
1304 1 18.075000000000003 9.037500000000001 12.6525 0 0 0
1305 1 21.69 7.23 10.845 0 0 0
1306 1 23.497500000000002 9.037500000000001 10.845 0 0 0
1307 1 23.497500000000002 7.23 12.6525 0 0 0
1308 1 21.69 9.037500000000001 12.6525 0 0 0
1309 1 25.305 7.23 10.845 0 0 0
1310 1 27.1125 9.037500000000001 10.845 0 0 0
1311 1 27.1125 7.23 12.6525 0 0 0
1312 1 25.305 9.037500000000001 12.6525 0 0 0
1313 1 28.92 7.23 10.845 0 0 0
1314 1 30.727500000000003 9.037500000000001 10.845 0 0 0
1315 1 30.727500000000003 7.23 12.6525 0 0 0
1316 1 28.92 9.037500000000001 12.6525 0 0 0
1317 1 32.535000000000004 7.23 10.845 0 0 0
1318 1 34.3425 9.037500000000001 10.845 0 0 0
1319 1 34.3425 7.23 12.6525 0 0 0
1320 1 32.535000000000004 9.037500000000001 12.6525 0 0 0
1321 1 0 10.845 10.845 0 0 0
1322 1 1.8075 12.6525 10.845 0 0 0
1323 1 1.8075 10.845 12.6525 0 0 0
1324 1 0 12.6525 12.6525 0 0 0
1325 1 3.615 10.845 10.845 0 0 0
1326 1 5.4225 12.6525 10.845 0 0 0
1327 1 5.4225 10.845 12.6525 0 0 0
1328 1 3.615 12.6525 12.6525 0 0 0
1329 1 7.23 10.845 10.845 0 0 0
1330 1 9.037500000000001 12.6525 10.845 0 0 0
1331 1 9.037500000000001 10.845 12.6525 0 0 0
1332 1 7.23 12.6525 12.6525 0 0 0
1333 1 10.845 10.845 10.845 0 0 0
1334 1 12.6525 12.6525 10.845 0 0 0
1335 1 12.6525 10.845 12.6525 0 0 0
1336 1 10.845 12.6525 12.6525 0 0 0
1337 1 14.46 10.845 10.845 0 0 0
1338 1 16.267500000000002 12.6525 10.845 0 0 0
1339 1 16.267500000000002 10.845 12.6525 0 0 0
1340 1 14.46 12.6525 12.6525 0 0 0
1341 1 18.075000000000003 10.845 10.845 0 0 0
1342 1 19.8825 12.6525 10.845 0 0 0
1343 1 19.8825 10.845 12.6525 0 0 0
1344 1 18.075000000000003 12.6525 12.6525 0 0 0
1345 1 21.69 10.845 10.845 0 0 0
1346 1 23.497500000000002 12.6525 10.845 0 0 0
1347 1 23.497500000000002 10.845 12.6525 0 0 0
1348 1 21.69 12.6525 12.6525 0 0 0
1349 1 25.305 10.845 10.845 0 0 0
1350 1 27.1125 12.6525 10.845 0 0 0
1351 1 27.1125 10.845 12.6525 0 0 0
1352 1 25.305 12.6525 12.6525 0 0 0
1353 1 28.92 10.845 10.845 0 0 0
1354 1 30.727500000000003 12.6525 10.845 0 0 0
1355 1 30.727500000000003 10.845 12.6525 0 0 0
1356 1 28.92 12.6525 12.6525 0 0 0
1357 1 32.535000000000004 10.845 10.845 0 0 0
1358 1 34.3425 12.6525 10.845 0 0 0
1359 1 34.3425 10.845 12.6525 0 0 0
1360 1 32.535000000000004 12.6525 12.6525 0 0 0
1361 1 0 14.46 10.845 0 0 0
1362 1 1.8075 16.267500000000002 10.845 0 0 0
1363 1 1.8075 14.46 12.6525 0 0 0
1364 1 0 16.267500000000002 12.6525 0 0 0
1365 1 3.615 14.46 10.845 0 0 0
1366 1 5.4225 16.267500000000002 10.845 0 0 0
1367 1 5.4225 14.46 12.6525 0 0 0
1368 1 3.615 16.267500000000002 12.6525 0 0 0
1369 1 7.23 14.46 10.845 0 0 0
1370 1 9.037500000000001 16.267500000000002 10.845 0 0 0
1371 1 9.037500000000001 14.46 12.6525 0 0 0
1372 1 7.23 16.267500000000002 12.6525 0 0 0
1373 1 10.845 14.46 10.845 0 0 0
1374 1 12.6525 16.267500000000002 10.845 0 0 0
1375 1 12.6525 14.46 12.6525 0 0 0
1376 1 10.845 16.267500000000002 12.6525 0 0 0
1377 1 14.46 14.46 10.845 0 0 0
1378 1 16.267500000000002 16.267500000000002 10.845 0 0 0
1379 1 16.267500000000002 14.46 12.6525 0 0 0
1380 1 14.46 16.267500000000002 12.6525 0 0 0
1381 1 18.075000000000003 14.46 10.845 0 0 0
1382 1 19.8825 16.267500000000002 10.845 0 0 0
1383 1 19.8825 14.46 12.6525 0 0 0
1384 1 18.075000000000003 16.267500000000002 12.6525 0 0 0
1385 1 21.69 14.46 10.845 0 0 0
1386 1 23.497500000000002 16.267500000000002 10.845 0 0 0
1387 1 23.497500000000002 14.46 12.6525 0 0 0
1388 1 21.69 16.267500000000002 12.6525 0 0 0
1389 1 25.305 14.46 10.845 0 0 0
1390 1 27.1125 16.267500000000002 10.845 0 0 0
1391 1 27.1125 14.46 12.6525 0 0 0
1392 1 25.305 16.267500000000002 12.6525 0 0 0
1393 1 28.92 14.46 10.845 0 0 0
1394 1 30.727500000000003 16.267500000000002 10.845 0 0 0
1395 1 30.727500000000003 14.46 12.6525 0 0 0
1396 1 28.92 16.267500000000002 12.6525 0 0 0
1397 1 32.535000000000004 14.46 10.845 0 0 0
1398 1 34.3425 16.267500000000002 10.845 0 0 0
1399 1 34.3425 14.46 12.6525 0 0 0
1400 1 32.535000000000004 16.267500000000002 12.6525 0 0 0
1401 1 0 18.075000000000003 10.845 0 0 0
1402 1 1.8075 19.8825 10.845 0 0 0
1403 1 1.8075 18.075000000000003 12.6525 0 0 0
1404 1 0 19.8825 12.6525 0 0 0
1405 1 3.615 18.075000000000003 10.845 0 0 0
1406 1 5.4225 19.8825 10.845 0 0 0
1407 1 5.4225 18.075000000000003 12.6525 0 0 0
1408 1 3.615 19.8825 12.6525 0 0 0
1409 1 7.23 18.075000000000003 10.845 0 0 0
1410 1 9.037500000000001 19.8825 10.845 0 0 0
1411 1 9.037500000000001 18.075000000000003 12.6525 0 0 0
1412 1 7.23 19.8825 12.6525 0 0 0
1413 1 10.845 18.075000000000003 10.845 0 0 0
1414 1 12.6525 19.8825 10.845 0 0 0
1415 1 12.6525 18.075000000000003 12.6525 0 0 0
1416 1 10.845 19.8825 12.6525 0 0 0
1417 1 14.46 18.075000000000003 10.845 0 0 0
1418 1 16.267500000000002 19.8825 10.845 0 0 0
1419 1 16.267500000000002 18.075000000000003 12.6525 0 0 0
1420 1 14.46 19.8825 12.6525 0 0 0
1421 1 18.075000000000003 18.075000000000003 10.845 0 0 0
1422 1 19.8825 19.8825 10.845 0 0 0
1423 1 19.8825 18.075000000000003 12.6525 0 0 0
1424 1 18.075000000000003 19.8825 12.6525 0 0 0
1425 1 21.69 18.075000000000003 10.845 0 0 0
1426 1 23.497500000000002 19.8825 10.845 0 0 0
1427 1 23.497500000000002 18.075000000000003 12.6525 0 0 0
1428 1 21.69 19.8825 12.6525 0 0 0
1429 1 25.305 18.075000000000003 10.845 0 0 0
1430 1 27.1125 19.8825 10.845 0 0 0
1431 1 27.1125 18.075000000000003 12.6525 0 0 0
1432 1 25.305 19.8825 12.6525 0 0 0
1433 1 28.92 18.075000000000003 10.845 0 0 0
1434 1 30.727500000000003 19.8825 10.845 0 0 0
1435 1 30.727500000000003 18.075000000000003 12.6525 0 0 0
1436 1 28.92 19.8825 12.6525 0 0 0
1437 1 32.535000000000004 18.075000000000003 10.845 0 0 0
1438 1 34.3425 19.8825 10.845 0 0 0
1439 1 34.3425 18.075000000000003 12.6525 0 0 0
1440 1 32.535000000000004 19.8825 12.6525 0 0 0
1441 1 0 21.69 10.845 0 0 0
1442 1 1.8075 23.497500000000002 10.845 0 0 0
1443 1 1.8075 21.69 12.6525 0 0 0
1444 1 0 23.497500000000002 12.6525 0 0 0
1445 1 3.615 21.69 10.845 0 0 0
1446 1 5.4225 23.497500000000002 10.845 0 0 0
1447 1 5.4225 21.69 12.6525 0 0 0
1448 1 3.615 23.497500000000002 12.6525 0 0 0
1449 1 7.23 21.69 10.845 0 0 0
1450 1 9.037500000000001 23.497500000000002 10.845 0 0 0
1451 1 9.037500000000001 21.69 12.6525 0 0 0
1452 1 7.23 23.497500000000002 12.6525 0 0 0
1453 1 10.845 21.69 10.845 0 0 0
1454 1 12.6525 23.497500000000002 10.845 0 0 0
1455 1 12.6525 21.69 12.6525 0 0 0
1456 1 10.845 23.497500000000002 12.6525 0 0 0
1457 1 14.46 21.69 10.845 0 0 0
1458 1 16.267500000000002 23.497500000000002 10.845 0 0 0
1459 1 16.267500000000002 21.69 12.6525 0 0 0
1460 1 14.46 23.497500000000002 12.6525 0 0 0
1461 1 18.075000000000003 21.69 10.845 0 0 0
1462 1 19.8825 23.497500000000002 10.845 0 0 0
1463 1 19.8825 21.69 12.6525 0 0 0
1464 1 18.075000000000003 23.497500000000002 12.6525 0 0 0
1465 1 21.69 21.69 10.845 0 0 0
1466 1 23.497500000000002 23.497500000000002 10.845 0 0 0
1467 1 23.497500000000002 21.69 12.6525 0 0 0
1468 1 21.69 23.497500000000002 12.6525 0 0 0
1469 1 25.305 21.69 10.845 0 0 0
1470 1 27.1125 23.497500000000002 10.845 0 0 0
1471 1 27.1125 21.69 12.6525 0 0 0
1472 1 25.305 23.497500000000002 12.6525 0 0 0
1473 1 28.92 21.69 10.845 0 0 0
1474 1 30.727500000000003 23.497500000000002 10.845 0 0 0
1475 1 30.727500000000003 21.69 12.6525 0 0 0
1476 1 28.92 23.497500000000002 12.6525 0 0 0
1477 1 32.535000000000004 21.69 10.845 0 0 0
1478 1 34.3425 23.497500000000002 10.845 0 0 0
1479 1 34.3425 21.69 12.6525 0 0 0
1480 1 32.535000000000004 23.497500000000002 12.6525 0 0 0
1481 1 0 25.305 10.845 0 0 0
1482 1 1.8075 27.1125 10.845 0 0 0
1483 1 1.8075 25.305 12.6525 0 0 0
1484 1 0 27.1125 12.6525 0 0 0
1485 1 3.615 25.305 10.845 0 0 0
1486 1 5.4225 27.1125 10.845 0 0 0
1487 1 5.4225 25.305 12.6525 0 0 0
1488 1 3.615 27.1125 12.6525 0 0 0
1489 1 7.23 25.305 10.845 0 0 0
1490 1 9.037500000000001 27.1125 10.845 0 0 0
1491 1 9.037500000000001 25.305 12.6525 0 0 0
1492 1 7.23 27.1125 12.6525 0 0 0
1493 1 10.845 25.305 10.845 0 0 0
1494 1 12.6525 27.1125 10.845 0 0 0
1495 1 12.6525 25.305 12.6525 0 0 0
1496 1 10.845 27.1125 12.6525 0 0 0
1497 1 14.46 25.305 10.845 0 0 0
1498 1 16.267500000000002 27.1125 10.845 0 0 0
1499 1 16.267500000000002 25.305 12.6525 0 0 0
1500 1 14.46 27.1125 12.6525 0 0 0
1501 1 18.075000000000003 25.305 10.845 0 0 0
1502 1 19.8825 27.1125 10.845 0 0 0
1503 1 19.8825 25.305 12.6525 0 0 0
1504 1 18.075000000000003 27.1125 12.6525 0 0 0
1505 1 21.69 25.305 10.845 0 0 0
1506 1 23.497500000000002 27.1125 10.845 0 0 0
1507 1 23.497500000000002 25.305 12.6525 0 0 0
1508 1 21.69 27.1125 12.6525 0 0 0
1509 1 25.305 25.305 10.845 0 0 0
1510 1 27.1125 27.1125 10.845 0 0 0
1511 1 27.1125 25.305 12.6525 0 0 0
1512 1 25.305 27.1125 12.6525 0 0 0
1513 1 28.92 25.305 10.845 0 0 0
1514 1 30.727500000000003 27.1125 10.845 0 0 0
1515 1 30.727500000000003 25.305 12.6525 0 0 0
1516 1 28.92 27.1125 12.6525 0 0 0
1517 1 32.535000000000004 25.305 10.845 0 0 0
1518 1 34.3425 27.1125 10.845 0 0 0
1519 1 34.3425 25.305 12.6525 0 0 0
1520 1 32.535000000000004 27.1125 12.6525 0 0 0
1521 1 0 28.92 10.845 0 0 0
1522 1 1.8075 30.727500000000003 10.845 0 0 0
1523 1 1.8075 28.92 12.6525 0 0 0
1524 1 0 30.727500000000003 12.6525 0 0 0
1525 1 3.615 28.92 10.845 0 0 0
1526 1 5.4225 30.727500000000003 10.845 0 0 0
1527 1 5.4225 28.92 12.6525 0 0 0
1528 1 3.615 30.727500000000003 12.6525 0 0 0
1529 1 7.23 28.92 10.845 0 0 0
1530 1 9.037500000000001 30.727500000000003 10.845 0 0 0
1531 1 9.037500000000001 28.92 12.6525 0 0 0
1532 1 7.23 30.727500000000003 12.6525 0 0 0
1533 1 10.845 28.92 10.845 0 0 0
1534 1 12.6525 30.727500000000003 10.845 0 0 0
1535 1 12.6525 28.92 12.6525 0 0 0
1536 1 10.845 30.727500000000003 12.6525 0 0 0
1537 1 14.46 28.92 10.845 0 0 0
1538 1 16.267500000000002 30.727500000000003 10.845 0 0 0
1539 1 16.267500000000002 28.92 12.6525 0 0 0
1540 1 14.46 30.727500000000003 12.6525 0 0 0
1541 1 18.075000000000003 28.92 10.845 0 0 0
1542 1 19.8825 30.727500000000003 10.845 0 0 0
1543 1 19.8825 28.92 12.6525 0 0 0
1544 1 18.075000000000003 30.727500000000003 12.6525 0 0 0
1545 1 21.69 28.92 10.845 0 0 0
1546 1 23.497500000000002 30.727500000000003 10.845 0 0 0
1547 1 23.497500000000002 28.92 12.6525 0 0 0
1548 1 21.69 30.727500000000003 12.6525 0 0 0
1549 1 25.305 28.92 10.845 0 0 0
1550 1 27.1125 30.727500000000003 10.845 0 0 0
1551 1 27.1125 28.92 12.6525 0 0 0
1552 1 25.305 30.727500000000003 12.6525 0 0 0
1553 1 28.92 28.92 10.845 0 0 0
1554 1 30.727500000000003 30.727500000000003 10.845 0 0 0
1555 1 30.727500000000003 28.92 12.6525 0 0 0
1556 1 28.92 30.727500000000003 12.6525 0 0 0
1557 1 32.535000000000004 28.92 10.845 0 0 0
1558 1 34.3425 30.727500000000003 10.845 0 0 0
1559 1 34.3425 28.92 12.6525 0 0 0
1560 1 32.535000000000004 30.727500000000003 12.6525 0 0 0
1561 1 0 32.535000000000004 10.845 0 0 0
1562 1 1.8075 34.3425 10.845 0 0 0
1563 1 1.8075 32.535000000000004 12.6525 0 0 0
1564 1 0 34.3425 12.6525 0 0 0
1565 1 3.615 32.535000000000004 10.845 0 0 0
1566 1 5.4225 34.3425 10.845 0 0 0
1567 1 5.4225 32.535000000000004 12.6525 0 0 0
1568 1 3.615 34.3425 12.6525 0 0 0
1569 1 7.23 32.535000000000004 10.845 0 0 0
1570 1 9.037500000000001 34.3425 10.845 0 0 0
1571 1 9.037500000000001 32.535000000000004 12.6525 0 0 0
1572 1 7.23 34.3425 12.6525 0 0 0
1573 1 10.845 32.535000000000004 10.845 0 0 0
1574 1 12.6525 34.3425 10.845 0 0 0
1575 1 12.6525 32.535000000000004 12.6525 0 0 0
1576 1 10.845 34.3425 12.6525 0 0 0
1577 1 14.46 32.535000000000004 10.845 0 0 0
1578 1 16.267500000000002 34.3425 10.845 0 0 0
1579 1 16.267500000000002 32.535000000000004 12.6525 0 0 0
1580 1 14.46 34.3425 12.6525 0 0 0
1581 1 18.075000000000003 32.535000000000004 10.845 0 0 0
1582 1 19.8825 34.3425 10.845 0 0 0
1583 1 19.8825 32.535000000000004 12.6525 0 0 0
1584 1 18.075000000000003 34.3425 12.6525 0 0 0
1585 1 21.69 32.535000000000004 10.845 0 0 0
1586 1 23.497500000000002 34.3425 10.845 0 0 0
1587 1 23.497500000000002 32.535000000000004 12.6525 0 0 0
1588 1 21.69 34.3425 12.6525 0 0 0
1589 1 25.305 32.535000000000004 10.845 0 0 0
1590 1 27.1125 34.3425 10.845 0 0 0
1591 1 27.1125 32.535000000000004 12.6525 0 0 0
1592 1 25.305 34.3425 12.6525 0 0 0
1593 1 28.92 32.535000000000004 10.845 0 0 0
1594 1 30.727500000000003 34.3425 10.845 0 0 0
1595 1 30.727500000000003 32.535000000000004 12.6525 0 0 0
1596 1 28.92 34.3425 12.6525 0 0 0
1597 1 32.535000000000004 32.535000000000004 10.845 0 0 0
1598 1 34.3425 34.3425 10.845 0 0 0
1599 1 34.3425 32.535000000000004 12.6525 0 0 0
1600 1 32.535000000000004 34.3425 12.6525 0 0 0
1601 1 0 0 14.46 0 0 0
1602 1 1.8075 1.8075 14.46 0 0 0
1603 1 1.8075 0 16.267500000000002 0 0 0
1604 1 0 1.8075 16.267500000000002 0 0 0
1605 1 3.615 0 14.46 0 0 0
1606 1 5.4225 1.8075 14.46 0 0 0
1607 1 5.4225 0 16.267500000000002 0 0 0
1608 1 3.615 1.8075 16.267500000000002 0 0 0
1609 1 7.23 0 14.46 0 0 0
1610 1 9.037500000000001 1.8075 14.46 0 0 0
1611 1 9.037500000000001 0 16.267500000000002 0 0 0
1612 1 7.23 1.8075 16.267500000000002 0 0 0
1613 1 10.845 0 14.46 0 0 0
1614 1 12.6525 1.8075 14.46 0 0 0
1615 1 12.6525 0 16.267500000000002 0 0 0
1616 1 10.845 1.8075 16.267500000000002 0 0 0
1617 1 14.46 0 14.46 0 0 0
1618 1 16.267500000000002 1.8075 14.46 0 0 0
1619 1 16.267500000000002 0 16.267500000000002 0 0 0
1620 1 14.46 1.8075 16.267500000000002 0 0 0
1621 1 18.075000000000003 0 14.46 0 0 0
1622 1 19.8825 1.8075 14.46 0 0 0
1623 1 19.8825 0 16.267500000000002 0 0 0
1624 1 18.075000000000003 1.8075 16.267500000000002 0 0 0
1625 1 21.69 0 14.46 0 0 0
1626 1 23.497500000000002 1.8075 14.46 0 0 0
1627 1 23.497500000000002 0 16.267500000000002 0 0 0
1628 1 21.69 1.8075 16.267500000000002 0 0 0
1629 1 25.305 0 14.46 0 0 0
1630 1 27.1125 1.8075 14.46 0 0 0
1631 1 27.1125 0 16.267500000000002 0 0 0
1632 1 25.305 1.8075 16.267500000000002 0 0 0
1633 1 28.92 0 14.46 0 0 0
1634 1 30.727500000000003 1.8075 14.46 0 0 0
1635 1 30.727500000000003 0 16.267500000000002 0 0 0
1636 1 28.92 1.8075 16.267500000000002 0 0 0
1637 1 32.535000000000004 0 14.46 0 0 0
1638 1 34.3425 1.8075 14.46 0 0 0
1639 1 34.3425 0 16.267500000000002 0 0 0
1640 1 32.535000000000004 1.8075 16.267500000000002 0 0 0
1641 1 0 3.615 14.46 0 0 0
1642 1 1.8075 5.4225 14.46 0 0 0
1643 1 1.8075 3.615 16.267500000000002 0 0 0
1644 1 0 5.4225 16.267500000000002 0 0 0
1645 1 3.615 3.615 14.46 0 0 0
1646 1 5.4225 5.4225 14.46 0 0 0
1647 1 5.4225 3.615 16.267500000000002 0 0 0
1648 1 3.615 5.4225 16.267500000000002 0 0 0
1649 1 7.23 3.615 14.46 0 0 0
1650 1 9.037500000000001 5.4225 14.46 0 0 0
1651 1 9.037500000000001 3.615 16.267500000000002 0 0 0
1652 1 7.23 5.4225 16.267500000000002 0 0 0
1653 1 10.845 3.615 14.46 0 0 0
1654 1 12.6525 5.4225 14.46 0 0 0
1655 1 12.6525 3.615 16.267500000000002 0 0 0
1656 1 10.845 5.4225 16.267500000000002 0 0 0
1657 1 14.46 3.615 14.46 0 0 0
1658 1 16.267500000000002 5.4225 14.46 0 0 0
1659 1 16.267500000000002 3.615 16.267500000000002 0 0 0
1660 1 14.46 5.4225 16.267500000000002 0 0 0
1661 1 18.075000000000003 3.615 14.46 0 0 0
1662 1 19.8825 5.4225 14.46 0 0 0
1663 1 19.8825 3.615 16.267500000000002 0 0 0
1664 1 18.075000000000003 5.4225 16.267500000000002 0 0 0
1665 1 21.69 3.615 14.46 0 0 0
1666 1 23.497500000000002 5.4225 14.46 0 0 0
1667 1 23.497500000000002 3.615 16.267500000000002 0 0 0
1668 1 21.69 5.4225 16.267500000000002 0 0 0
1669 1 25.305 3.615 14.46 0 0 0
1670 1 27.1125 5.4225 14.46 0 0 0
1671 1 27.1125 3.615 16.267500000000002 0 0 0
1672 1 25.305 5.4225 16.267500000000002 0 0 0
1673 1 28.92 3.615 14.46 0 0 0
1674 1 30.727500000000003 5.4225 14.46 0 0 0
1675 1 30.727500000000003 3.615 16.267500000000002 0 0 0
1676 1 28.92 5.4225 16.267500000000002 0 0 0
1677 1 32.535000000000004 3.615 14.46 0 0 0
1678 1 34.3425 5.4225 14.46 0 0 0
1679 1 34.3425 3.615 16.267500000000002 0 0 0
1680 1 32.535000000000004 5.4225 16.267500000000002 0 0 0
1681 1 0 7.23 14.46 0 0 0
1682 1 1.8075 9.037500000000001 14.46 0 0 0
1683 1 1.8075 7.23 16.267500000000002 0 0 0
1684 1 0 9.037500000000001 16.267500000000002 0 0 0
1685 1 3.615 7.23 14.46 0 0 0
1686 1 5.4225 9.037500000000001 14.46 0 0 0
1687 1 5.4225 7.23 16.267500000000002 0 0 0
1688 1 3.615 9.037500000000001 16.267500000000002 0 0 0
1689 1 7.23 7.23 14.46 0 0 0
1690 1 9.037500000000001 9.037500000000001 14.46 0 0 0
1691 1 9.037500000000001 7.23 16.267500000000002 0 0 0
1692 1 7.23 9.037500000000001 16.267500000000002 0 0 0
1693 1 10.845 7.23 14.46 0 0 0
1694 1 12.6525 9.037500000000001 14.46 0 0 0
1695 1 12.6525 7.23 16.267500000000002 0 0 0
1696 1 10.845 9.037500000000001 16.267500000000002 0 0 0
1697 1 14.46 7.23 14.46 0 0 0
1698 1 16.267500000000002 9.037500000000001 14.46 0 0 0
1699 1 16.267500000000002 7.23 16.267500000000002 0 0 0
1700 1 14.46 9.037500000000001 16.267500000000002 0 0 0
1701 1 18.075000000000003 7.23 14.46 0 0 0
1702 1 19.8825 9.037500000000001 14.46 0 0 0
1703 1 19.8825 7.23 16.267500000000002 0 0 0
1704 1 18.075000000000003 9.037500000000001 16.267500000000002 0 0 0
1705 1 21.69 7.23 14.46 0 0 0
1706 1 23.497500000000002 9.037500000000001 14.46 0 0 0
1707 1 23.497500000000002 7.23 16.267500000000002 0 0 0
1708 1 21.69 9.037500000000001 16.267500000000002 0 0 0
1709 1 25.305 7.23 14.46 0 0 0
1710 1 27.1125 9.037500000000001 14.46 0 0 0
1711 1 27.1125 7.23 16.267500000000002 0 0 0
1712 1 25.305 9.037500000000001 16.267500000000002 0 0 0
1713 1 28.92 7.23 14.46 0 0 0
1714 1 30.727500000000003 9.037500000000001 14.46 0 0 0
1715 1 30.727500000000003 7.23 16.267500000000002 0 0 0
1716 1 28.92 9.037500000000001 16.267500000000002 0 0 0
1717 1 32.535000000000004 7.23 14.46 0 0 0
1718 1 34.3425 9.037500000000001 14.46 0 0 0
1719 1 34.3425 7.23 16.267500000000002 0 0 0
1720 1 32.535000000000004 9.037500000000001 16.267500000000002 0 0 0
1721 1 0 10.845 14.46 0 0 0
1722 1 1.8075 12.6525 14.46 0 0 0
1723 1 1.8075 10.845 16.267500000000002 0 0 0
1724 1 0 12.6525 16.267500000000002 0 0 0
1725 1 3.615 10.845 14.46 0 0 0
1726 1 5.4225 12.6525 14.46 0 0 0
1727 1 5.4225 10.845 16.267500000000002 0 0 0
1728 1 3.615 12.6525 16.267500000000002 0 0 0
1729 1 7.23 10.845 14.46 0 0 0
1730 1 9.037500000000001 12.6525 14.46 0 0 0
1731 1 9.037500000000001 10.845 16.267500000000002 0 0 0
1732 1 7.23 12.6525 16.267500000000002 0 0 0
1733 1 10.845 10.845 14.46 0 0 0
1734 1 12.6525 12.6525 14.46 0 0 0
1735 1 12.6525 10.845 16.267500000000002 0 0 0
1736 1 10.845 12.6525 16.267500000000002 0 0 0
1737 1 14.46 10.845 14.46 0 0 0
1738 1 16.267500000000002 12.6525 14.46 0 0 0
1739 1 16.267500000000002 10.845 16.267500000000002 0 0 0
1740 1 14.46 12.6525 16.267500000000002 0 0 0
1741 1 18.075000000000003 10.845 14.46 0 0 0
1742 1 19.8825 12.6525 14.46 0 0 0
1743 1 19.8825 10.845 16.267500000000002 0 0 0
1744 1 18.075000000000003 12.6525 16.267500000000002 0 0 0
1745 1 21.69 10.845 14.46 0 0 0
1746 1 23.497500000000002 12.6525 14.46 0 0 0
1747 1 23.497500000000002 10.845 16.267500000000002 0 0 0
1748 1 21.69 12.6525 16.267500000000002 0 0 0
1749 1 25.305 10.845 14.46 0 0 0
1750 1 27.1125 12.6525 14.46 0 0 0
1751 1 27.1125 10.845 16.267500000000002 0 0 0
1752 1 25.305 12.6525 16.267500000000002 0 0 0
1753 1 28.92 10.845 14.46 0 0 0
1754 1 30.727500000000003 12.6525 14.46 0 0 0
1755 1 30.727500000000003 10.845 16.267500000000002 0 0 0
1756 1 28.92 12.6525 16.267500000000002 0 0 0
1757 1 32.535000000000004 10.845 14.46 0 0 0
1758 1 34.3425 12.6525 14.46 0 0 0
1759 1 34.3425 10.845 16.267500000000002 0 0 0
1760 1 32.535000000000004 12.6525 16.267500000000002 0 0 0
1761 1 0 14.46 14.46 0 0 0
1762 1 1.8075 16.267500000000002 14.46 0 0 0
1763 1 1.8075 14.46 16.267500000000002 0 0 0
1764 1 0 16.267500000000002 16.267500000000002 0 0 0
1765 1 3.615 14.46 14.46 0 0 0
1766 1 5.4225 16.267500000000002 14.46 0 0 0
1767 1 5.4225 14.46 16.267500000000002 0 0 0
1768 1 3.615 16.267500000000002 16.267500000000002 0 0 0
1769 1 7.23 14.46 14.46 0 0 0
1770 1 9.037500000000001 16.267500000000002 14.46 0 0 0
1771 1 9.037500000000001 14.46 16.267500000000002 0 0 0
1772 1 7.23 16.267500000000002 16.267500000000002 0 0 0
1773 1 10.845 14.46 14.46 0 0 0
1774 1 12.6525 16.267500000000002 14.46 0 0 0
1775 1 12.6525 14.46 16.267500000000002 0 0 0
1776 1 10.845 16.267500000000002 16.267500000000002 0 0 0
1777 1 14.46 14.46 14.46 0 0 0
1778 1 16.267500000000002 16.267500000000002 14.46 0 0 0
1779 1 16.267500000000002 14.46 16.267500000000002 0 0 0
1780 1 14.46 16.267500000000002 16.267500000000002 0 0 0
1781 1 18.075000000000003 14.46 14.46 0 0 0
1782 1 19.8825 16.267500000000002 14.46 0 0 0
1783 1 19.8825 14.46 16.267500000000002 0 0 0
1784 1 18.075000000000003 16.267500000000002 16.267500000000002 0 0 0
1785 1 21.69 14.46 14.46 0 0 0
1786 1 23.497500000000002 16.267500000000002 14.46 0 0 0
1787 1 23.497500000000002 14.46 16.267500000000002 0 0 0
1788 1 21.69 16.267500000000002 16.267500000000002 0 0 0
1789 1 25.305 14.46 14.46 0 0 0
1790 1 27.1125 16.267500000000002 14.46 0 0 0
1791 1 27.1125 14.46 16.267500000000002 0 0 0
1792 1 25.305 16.267500000000002 16.267500000000002 0 0 0
1793 1 28.92 14.46 14.46 0 0 0
1794 1 30.727500000000003 16.267500000000002 14.46 0 0 0
1795 1 30.727500000000003 14.46 16.267500000000002 0 0 0
1796 1 28.92 16.267500000000002 16.267500000000002 0 0 0
1797 1 32.535000000000004 14.46 14.46 0 0 0
1798 1 34.3425 16.267500000000002 14.46 0 0 0
1799 1 34.3425 14.46 16.267500000000002 0 0 0
1800 1 32.535000000000004 16.267500000000002 16.267500000000002 0 0 0
1801 1 0 18.075000000000003 14.46 0 0 0
1802 1 1.8075 19.8825 14.46 0 0 0
1803 1 1.8075 18.075000000000003 16.267500000000002 0 0 0
1804 1 0 19.8825 16.267500000000002 0 0 0
1805 1 3.615 18.075000000000003 14.46 0 0 0
1806 1 5.4225 19.8825 14.46 0 0 0
1807 1 5.4225 18.075000000000003 16.267500000000002 0 0 0
1808 1 3.615 19.8825 16.267500000000002 0 0 0
1809 1 7.23 18.075000000000003 14.46 0 0 0
1810 1 9.037500000000001 19.8825 14.46 0 0 0
1811 1 9.037500000000001 18.075000000000003 16.267500000000002 0 0 0
1812 1 7.23 19.8825 16.267500000000002 0 0 0
1813 1 10.845 18.075000000000003 14.46 0 0 0
1814 1 12.6525 19.8825 14.46 0 0 0
1815 1 12.6525 18.075000000000003 16.267500000000002 0 0 0
1816 1 10.845 19.8825 16.267500000000002 0 0 0
1817 1 14.46 18.075000000000003 14.46 0 0 0
1818 1 16.267500000000002 19.8825 14.46 0 0 0
1819 1 16.267500000000002 18.075000000000003 16.267500000000002 0 0 0
1820 1 14.46 19.8825 16.267500000000002 0 0 0
1821 1 18.075000000000003 18.075000000000003 14.46 0 0 0
1822 1 19.8825 19.8825 14.46 0 0 0
1823 1 19.8825 18.075000000000003 16.267500000000002 0 0 0
1824 1 18.075000000000003 19.8825 16.267500000000002 0 0 0
1825 1 21.69 18.075000000000003 14.46 0 0 0
1826 1 23.497500000000002 19.8825 14.46 0 0 0
1827 1 23.497500000000002 18.075000000000003 16.267500000000002 0 0 0
1828 1 21.69 19.8825 16.267500000000002 0 0 0
1829 1 25.305 18.075000000000003 14.46 0 0 0
1830 1 27.1125 19.8825 14.46 0 0 0
1831 1 27.1125 18.075000000000003 16.267500000000002 0 0 0
1832 1 25.305 19.8825 16.267500000000002 0 0 0
1833 1 28.92 18.075000000000003 14.46 0 0 0
1834 1 30.727500000000003 19.8825 14.46 0 0 0
1835 1 30.727500000000003 18.075000000000003 16.267500000000002 0 0 0
1836 1 28.92 19.8825 16.267500000000002 0 0 0
1837 1 32.535000000000004 18.075000000000003 14.46 0 0 0
1838 1 34.3425 19.8825 14.46 0 0 0
1839 1 34.3425 18.075000000000003 16.267500000000002 0 0 0
1840 1 32.535000000000004 19.8825 16.267500000000002 0 0 0
1841 1 0 21.69 14.46 0 0 0
1842 1 1.8075 23.497500000000002 14.46 0 0 0
1843 1 1.8075 21.69 16.267500000000002 0 0 0
1844 1 0 23.497500000000002 16.267500000000002 0 0 0
1845 1 3.615 21.69 14.46 0 0 0
1846 1 5.4225 23.497500000000002 14.46 0 0 0
1847 1 5.4225 21.69 16.267500000000002 0 0 0
1848 1 3.615 23.497500000000002 16.267500000000002 0 0 0
1849 1 7.23 21.69 14.46 0 0 0
1850 1 9.037500000000001 23.497500000000002 14.46 0 0 0
1851 1 9.037500000000001 21.69 16.267500000000002 0 0 0
1852 1 7.23 23.497500000000002 16.267500000000002 0 0 0
1853 1 10.845 21.69 14.46 0 0 0
1854 1 12.6525 23.497500000000002 14.46 0 0 0
1855 1 12.6525 21.69 16.267500000000002 0 0 0
1856 1 10.845 23.497500000000002 16.267500000000002 0 0 0
1857 1 14.46 21.69 14.46 0 0 0
1858 1 16.267500000000002 23.497500000000002 14.46 0 0 0
1859 1 16.267500000000002 21.69 16.267500000000002 0 0 0
1860 1 14.46 23.497500000000002 16.267500000000002 0 0 0
1861 1 18.075000000000003 21.69 14.46 0 0 0
1862 1 19.8825 23.497500000000002 14.46 0 0 0
1863 1 19.8825 21.69 16.267500000000002 0 0 0
1864 1 18.075000000000003 23.497500000000002 16.267500000000002 0 0 0
1865 1 21.69 21.69 14.46 0 0 0
1866 1 23.497500000000002 23.497500000000002 14.46 0 0 0
1867 1 23.497500000000002 21.69 16.267500000000002 0 0 0
1868 1 21.69 23.497500000000002 16.267500000000002 0 0 0
1869 1 25.305 21.69 14.46 0 0 0
1870 1 27.1125 23.497500000000002 14.46 0 0 0
1871 1 27.1125 21.69 16.267500000000002 0 0 0
1872 1 25.305 23.497500000000002 16.267500000000002 0 0 0
1873 1 28.92 21.69 14.46 0 0 0
1874 1 30.727500000000003 23.497500000000002 14.46 0 0 0
1875 1 30.727500000000003 21.69 16.267500000000002 0 0 0
1876 1 28.92 23.497500000000002 16.267500000000002 0 0 0
1877 1 32.535000000000004 21.69 14.46 0 0 0
1878 1 34.3425 23.497500000000002 14.46 0 0 0
1879 1 34.3425 21.69 16.267500000000002 0 0 0
1880 1 32.535000000000004 23.497500000000002 16.267500000000002 0 0 0
1881 1 0 25.305 14.46 0 0 0
1882 1 1.8075 27.1125 14.46 0 0 0
1883 1 1.8075 25.305 16.267500000000002 0 0 0
1884 1 0 27.1125 16.267500000000002 0 0 0
1885 1 3.615 25.305 14.46 0 0 0
1886 1 5.4225 27.1125 14.46 0 0 0
1887 1 5.4225 25.305 16.267500000000002 0 0 0
1888 1 3.615 27.1125 16.267500000000002 0 0 0
1889 1 7.23 25.305 14.46 0 0 0
1890 1 9.037500000000001 27.1125 14.46 0 0 0
1891 1 9.037500000000001 25.305 16.267500000000002 0 0 0
1892 1 7.23 27.1125 16.267500000000002 0 0 0
1893 1 10.845 25.305 14.46 0 0 0
1894 1 12.6525 27.1125 14.46 0 0 0
1895 1 12.6525 25.305 16.267500000000002 0 0 0
1896 1 10.845 27.1125 16.267500000000002 0 0 0
1897 1 14.46 25.305 14.46 0 0 0
1898 1 16.267500000000002 27.1125 14.46 0 0 0
1899 1 16.267500000000002 25.305 16.267500000000002 0 0 0
1900 1 14.46 27.1125 16.267500000000002 0 0 0
1901 1 18.075000000000003 25.305 14.46 0 0 0
1902 1 19.8825 27.1125 14.46 0 0 0
1903 1 19.8825 25.305 16.267500000000002 0 0 0
1904 1 18.075000000000003 27.1125 16.267500000000002 0 0 0
1905 1 21.69 25.305 14.46 0 0 0
1906 1 23.497500000000002 27.1125 14.46 0 0 0
1907 1 23.497500000000002 25.305 16.267500000000002 0 0 0
1908 1 21.69 27.1125 16.267500000000002 0 0 0
1909 1 25.305 25.305 14.46 0 0 0
1910 1 27.1125 27.1125 14.46 0 0 0
1911 1 27.1125 25.305 16.267500000000002 0 0 0
1912 1 25.305 27.1125 16.267500000000002 0 0 0
1913 1 28.92 25.305 14.46 0 0 0
1914 1 30.727500000000003 27.1125 14.46 0 0 0
1915 1 30.727500000000003 25.305 16.267500000000002 0 0 0
1916 1 28.92 27.1125 16.267500000000002 0 0 0
1917 1 32.535000000000004 25.305 14.46 0 0 0
1918 1 34.3425 27.1125 14.46 0 0 0
1919 1 34.3425 25.305 16.267500000000002 0 0 0
1920 1 32.535000000000004 27.1125 16.267500000000002 0 0 0
1921 1 0 28.92 14.46 0 0 0
1922 1 1.8075 30.727500000000003 14.46 0 0 0
1923 1 1.8075 28.92 16.267500000000002 0 0 0
1924 1 0 30.727500000000003 16.267500000000002 0 0 0
1925 1 3.615 28.92 14.46 0 0 0
1926 1 5.4225 30.727500000000003 14.46 0 0 0
1927 1 5.4225 28.92 16.267500000000002 0 0 0
1928 1 3.615 30.727500000000003 16.267500000000002 0 0 0
1929 1 7.23 28.92 14.46 0 0 0
1930 1 9.037500000000001 30.727500000000003 14.46 0 0 0
1931 1 9.037500000000001 28.92 16.267500000000002 0 0 0
1932 1 7.23 30.727500000000003 16.267500000000002 0 0 0
1933 1 10.845 28.92 14.46 0 0 0
1934 1 12.6525 30.727500000000003 14.46 0 0 0
1935 1 12.6525 28.92 16.267500000000002 0 0 0
1936 1 10.845 30.727500000000003 16.267500000000002 0 0 0
1937 1 14.46 28.92 14.46 0 0 0
1938 1 16.267500000000002 30.727500000000003 14.46 0 0 0
1939 1 16.267500000000002 28.92 16.267500000000002 0 0 0
1940 1 14.46 30.727500000000003 16.267500000000002 0 0 0
1941 1 18.075000000000003 28.92 14.46 0 0 0
1942 1 19.8825 30.727500000000003 14.46 0 0 0
1943 1 19.8825 28.92 16.267500000000002 0 0 0
1944 1 18.075000000000003 30.727500000000003 16.267500000000002 0 0 0
1945 1 21.69 28.92 14.46 0 0 0
1946 1 23.497500000000002 30.727500000000003 14.46 0 0 0
1947 1 23.497500000000002 28.92 16.267500000000002 0 0 0
1948 1 21.69 30.727500000000003 16.267500000000002 0 0 0
1949 1 25.305 28.92 14.46 0 0 0
1950 1 27.1125 30.727500000000003 14.46 0 0 0
1951 1 27.1125 28.92 16.267500000000002 0 0 0
1952 1 25.305 30.727500000000003 16.267500000000002 0 0 0
1953 1 28.92 28.92 14.46 0 0 0
1954 1 30.727500000000003 30.727500000000003 14.46 0 0 0
1955 1 30.727500000000003 28.92 16.267500000000002 0 0 0
1956 1 28.92 30.727500000000003 16.267500000000002 0 0 0
1957 1 32.535000000000004 28.92 14.46 0 0 0
1958 1 34.3425 30.727500000000003 14.46 0 0 0
1959 1 34.3425 28.92 16.267500000000002 0 0 0
1960 1 32.535000000000004 30.727500000000003 16.267500000000002 0 0 0
1961 1 0 32.535000000000004 14.46 0 0 0
1962 1 1.8075 34.3425 14.46 0 0 0
1963 1 1.8075 32.535000000000004 16.267500000000002 0 0 0
1964 1 0 34.3425 16.267500000000002 0 0 0
1965 1 3.615 32.535000000000004 14.46 0 0 0
1966 1 5.4225 34.3425 14.46 0 0 0
1967 1 5.4225 32.535000000000004 16.267500000000002 0 0 0
1968 1 3.615 34.3425 16.267500000000002 0 0 0
1969 1 7.23 32.535000000000004 14.46 0 0 0
1970 1 9.037500000000001 34.3425 14.46 0 0 0
1971 1 9.037500000000001 32.535000000000004 16.267500000000002 0 0 0
1972 1 7.23 34.3425 16.267500000000002 0 0 0
1973 1 10.845 32.535000000000004 14.46 0 0 0
1974 1 12.6525 34.3425 14.46 0 0 0
1975 1 12.6525 32.535000000000004 16.267500000000002 0 0 0
1976 1 10.845 34.3425 16.267500000000002 0 0 0
1977 1 14.46 32.535000000000004 14.46 0 0 0
1978 1 16.267500000000002 34.3425 14.46 0 0 0
1979 1 16.267500000000002 32.535000000000004 16.267500000000002 0 0 0
1980 1 14.46 34.3425 16.267500000000002 0 0 0
1981 1 18.075000000000003 32.535000000000004 14.46 0 0 0
1982 1 19.8825 34.3425 14.46 0 0 0
1983 1 19.8825 32.535000000000004 16.267500000000002 0 0 0
1984 1 18.075000000000003 34.3425 16.267500000000002 0 0 0
1985 1 21.69 32.535000000000004 14.46 0 0 0
1986 1 23.497500000000002 34.3425 14.46 0 0 0
1987 1 23.497500000000002 32.535000000000004 16.267500000000002 0 0 0
1988 1 21.69 34.3425 16.267500000000002 0 0 0
1989 1 25.305 32.535000000000004 14.46 0 0 0
1990 1 27.1125 34.3425 14.46 0 0 0
1991 1 27.1125 32.535000000000004 16.267500000000002 0 0 0
1992 1 25.305 34.3425 16.267500000000002 0 0 0
1993 1 28.92 32.535000000000004 14.46 0 0 0
1994 1 30.727500000000003 34.3425 14.46 0 0 0
1995 1 30.727500000000003 32.535000000000004 16.267500000000002 0 0 0
1996 1 28.92 34.3425 16.267500000000002 0 0 0
1997 1 32.535000000000004 32.535000000000004 14.46 0 0 0
1998 1 34.3425 34.3425 14.46 0 0 0
1999 1 34.3425 32.535000000000004 16.267500000000002 0 0 0
2000 1 32.535000000000004 34.3425 16.267500000000002 0 0 0
2001 1 0 0 18.075000000000003 0 0 0
2002 1 1.8075 1.8075 18.075000000000003 0 0 0
2003 1 1.8075 0 19.8825 0 0 0
2004 1 0 1.8075 19.8825 0 0 0
2005 1 3.615 0 18.075000000000003 0 0 0
2006 1 5.4225 1.8075 18.075000000000003 0 0 0
2007 1 5.4225 0 19.8825 0 0 0
2008 1 3.615 1.8075 19.8825 0 0 0
2009 1 7.23 0 18.075000000000003 0 0 0
2010 1 9.037500000000001 1.8075 18.075000000000003 0 0 0
2011 1 9.037500000000001 0 19.8825 0 0 0
2012 1 7.23 1.8075 19.8825 0 0 0
2013 1 10.845 0 18.075000000000003 0 0 0
2014 1 12.6525 1.8075 18.075000000000003 0 0 0
2015 1 12.6525 0 19.8825 0 0 0
2016 1 10.845 1.8075 19.8825 0 0 0
2017 1 14.46 0 18.075000000000003 0 0 0
2018 1 16.267500000000002 1.8075 18.075000000000003 0 0 0
2019 1 16.267500000000002 0 19.8825 0 0 0
2020 1 14.46 1.8075 19.8825 0 0 0
2021 1 18.075000000000003 0 18.075000000000003 0 0 0
2022 1 19.8825 1.8075 18.075000000000003 0 0 0
2023 1 19.8825 0 19.8825 0 0 0
2024 1 18.075000000000003 1.8075 19.8825 0 0 0
2025 1 21.69 0 18.075000000000003 0 0 0
2026 1 23.497500000000002 1.8075 18.075000000000003 0 0 0
2027 1 23.497500000000002 0 19.8825 0 0 0
2028 1 21.69 1.8075 19.8825 0 0 0
2029 1 25.305 0 18.075000000000003 0 0 0
2030 1 27.1125 1.8075 18.075000000000003 0 0 0
2031 1 27.1125 0 19.8825 0 0 0
2032 1 25.305 1.8075 19.8825 0 0 0
2033 1 28.92 0 18.075000000000003 0 0 0
2034 1 30.727500000000003 1.8075 18.075000000000003 0 0 0
2035 1 30.727500000000003 0 19.8825 0 0 0
2036 1 28.92 1.8075 19.8825 0 0 0
2037 1 32.535000000000004 0 18.075000000000003 0 0 0
2038 1 34.3425 1.8075 18.075000000000003 0 0 0
2039 1 34.3425 0 19.8825 0 0 0
2040 1 32.535000000000004 1.8075 19.8825 0 0 0
2041 1 0 3.615 18.075000000000003 0 0 0
2042 1 1.8075 5.4225 18.075000000000003 0 0 0
2043 1 1.8075 3.615 19.8825 0 0 0
2044 1 0 5.4225 19.8825 0 0 0
2045 1 3.615 3.615 18.075000000000003 0 0 0
2046 1 5.4225 5.4225 18.075000000000003 0 0 0
2047 1 5.4225 3.615 19.8825 0 0 0
2048 1 3.615 5.4225 19.8825 0 0 0
2049 1 7.23 3.615 18.075000000000003 0 0 0
2050 1 9.037500000000001 5.4225 18.075000000000003 0 0 0
2051 1 9.037500000000001 3.615 19.8825 0 0 0
2052 1 7.23 5.4225 19.8825 0 0 0
2053 1 10.845 3.615 18.075000000000003 0 0 0
2054 1 12.6525 5.4225 18.075000000000003 0 0 0
2055 1 12.6525 3.615 19.8825 0 0 0
2056 1 10.845 5.4225 19.8825 0 0 0
2057 1 14.46 3.615 18.075000000000003 0 0 0
2058 1 16.267500000000002 5.4225 18.075000000000003 0 0 0
2059 1 16.267500000000002 3.615 19.8825 0 0 0
2060 1 14.46 5.4225 19.8825 0 0 0
2061 1 18.075000000000003 3.615 18.075000000000003 0 0 0
2062 1 19.8825 5.4225 18.075000000000003 0 0 0
2063 1 19.8825 3.615 19.8825 0 0 0
2064 1 18.075000000000003 5.4225 19.8825 0 0 0
2065 1 21.69 3.615 18.075000000000003 0 0 0
2066 1 23.497500000000002 5.4225 18.075000000000003 0 0 0
2067 1 23.497500000000002 3.615 19.8825 0 0 0
2068 1 21.69 5.4225 19.8825 0 0 0
2069 1 25.305 3.615 18.075000000000003 0 0 0
2070 1 27.1125 5.4225 18.075000000000003 0 0 0
2071 1 27.1125 3.615 19.8825 0 0 0
2072 1 25.305 5.4225 19.8825 0 0 0
2073 1 28.92 3.615 18.075000000000003 0 0 0
2074 1 30.727500000000003 5.4225 18.075000000000003 0 0 0
2075 1 30.727500000000003 3.615 19.8825 0 0 0
2076 1 28.92 5.4225 19.8825 0 0 0
2077 1 32.535000000000004 3.615 18.075000000000003 0 0 0
2078 1 34.3425 5.4225 18.075000000000003 0 0 0
2079 1 34.3425 3.615 19.8825 0 0 0
2080 1 32.535000000000004 5.4225 19.8825 0 0 0
2081 1 0 7.23 18.075000000000003 0 0 0
2082 1 1.8075 9.037500000000001 18.075000000000003 0 0 0
2083 1 1.8075 7.23 19.8825 0 0 0
2084 1 0 9.037500000000001 19.8825 0 0 0
2085 1 3.615 7.23 18.075000000000003 0 0 0
2086 1 5.4225 9.037500000000001 18.075000000000003 0 0 0
2087 1 5.4225 7.23 19.8825 0 0 0
2088 1 3.615 9.037500000000001 19.8825 0 0 0
2089 1 7.23 7.23 18.075000000000003 0 0 0
2090 1 9.037500000000001 9.037500000000001 18.075000000000003 0 0 0
2091 1 9.037500000000001 7.23 19.8825 0 0 0
2092 1 7.23 9.037500000000001 19.8825 0 0 0
2093 1 10.845 7.23 18.075000000000003 0 0 0
2094 1 12.6525 9.037500000000001 18.075000000000003 0 0 0
2095 1 12.6525 7.23 19.8825 0 0 0
2096 1 10.845 9.037500000000001 19.8825 0 0 0
2097 1 14.46 7.23 18.075000000000003 0 0 0
2098 1 16.267500000000002 9.037500000000001 18.075000000000003 0 0 0
2099 1 16.267500000000002 7.23 19.8825 0 0 0
2100 1 14.46 9.037500000000001 19.8825 0 0 0
2101 1 18.075000000000003 7.23 18.075000000000003 0 0 0
2102 1 19.8825 9.037500000000001 18.075000000000003 0 0 0
2103 1 19.8825 7.23 19.8825 0 0 0
2104 1 18.075000000000003 9.037500000000001 19.8825 0 0 0
2105 1 21.69 7.23 18.075000000000003 0 0 0
2106 1 23.497500000000002 9.037500000000001 18.075000000000003 0 0 0
2107 1 23.497500000000002 7.23 19.8825 0 0 0
2108 1 21.69 9.037500000000001 19.8825 0 0 0
2109 1 25.305 7.23 18.075000000000003 0 0 0
2110 1 27.1125 9.037500000000001 18.075000000000003 0 0 0
2111 1 27.1125 7.23 19.8825 0 0 0
2112 1 25.305 9.037500000000001 19.8825 0 0 0
2113 1 28.92 7.23 18.075000000000003 0 0 0
2114 1 30.727500000000003 9.037500000000001 18.075000000000003 0 0 0
2115 1 30.727500000000003 7.23 19.8825 0 0 0
2116 1 28.92 9.037500000000001 19.8825 0 0 0
2117 1 32.535000000000004 7.23 18.075000000000003 0 0 0
2118 1 34.3425 9.037500000000001 18.075000000000003 0 0 0
2119 1 34.3425 7.23 19.8825 0 0 0
2120 1 32.535000000000004 9.037500000000001 19.8825 0 0 0
2121 1 0 10.845 18.075000000000003 0 0 0
2122 1 1.8075 12.6525 18.075000000000003 0 0 0
2123 1 1.8075 10.845 19.8825 0 0 0
2124 1 0 12.6525 19.8825 0 0 0
2125 1 3.615 10.845 18.075000000000003 0 0 0
2126 1 5.4225 12.6525 18.075000000000003 0 0 0
2127 1 5.4225 10.845 19.8825 0 0 0
2128 1 3.615 12.6525 19.8825 0 0 0
2129 1 7.23 10.845 18.075000000000003 0 0 0
2130 1 9.037500000000001 12.6525 18.075000000000003 0 0 0
2131 1 9.037500000000001 10.845 19.8825 0 0 0
2132 1 7.23 12.6525 19.8825 0 0 0
2133 1 10.845 10.845 18.075000000000003 0 0 0
2134 1 12.6525 12.6525 18.075000000000003 0 0 0
2135 1 12.6525 10.845 19.8825 0 0 0
2136 1 10.845 12.6525 19.8825 0 0 0
2137 1 14.46 10.845 18.075000000000003 0 0 0
2138 1 16.267500000000002 12.6525 18.075000000000003 0 0 0
2139 1 16.267500000000002 10.845 19.8825 0 0 0
2140 1 14.46 12.6525 19.8825 0 0 0
2141 1 18.075000000000003 10.845 18.075000000000003 0 0 0
2142 1 19.8825 12.6525 18.075000000000003 0 0 0
2143 1 19.8825 10.845 19.8825 0 0 0
2144 1 18.075000000000003 12.6525 19.8825 0 0 0
2145 1 21.69 10.845 18.075000000000003 0 0 0
2146 1 23.497500000000002 12.6525 18.075000000000003 0 0 0
2147 1 23.497500000000002 10.845 19.8825 0 0 0
2148 1 21.69 12.6525 19.8825 0 0 0
2149 1 25.305 10.845 18.075000000000003 0 0 0
2150 1 27.1125 12.6525 18.075000000000003 0 0 0
2151 1 27.1125 10.845 19.8825 0 0 0
2152 1 25.305 12.6525 19.8825 0 0 0
2153 1 28.92 10.845 18.075000000000003 0 0 0
2154 1 30.727500000000003 12.6525 18.075000000000003 0 0 0
2155 1 30.727500000000003 10.845 19.8825 0 0 0
2156 1 28.92 12.6525 19.8825 0 0 0
2157 1 32.535000000000004 10.845 18.075000000000003 0 0 0
2158 1 34.3425 12.6525 18.075000000000003 0 0 0
2159 1 34.3425 10.845 19.8825 0 0 0
2160 1 32.535000000000004 12.6525 19.8825 0 0 0
2161 1 0 14.46 18.075000000000003 0 0 0
2162 1 1.8075 16.267500000000002 18.075000000000003 0 0 0
2163 1 1.8075 14.46 19.8825 0 0 0
2164 1 0 16.267500000000002 19.8825 0 0 0
2165 1 3.615 14.46 18.075000000000003 0 0 0
2166 1 5.4225 16.267500000000002 18.075000000000003 0 0 0
2167 1 5.4225 14.46 19.8825 0 0 0
2168 1 3.615 16.267500000000002 19.8825 0 0 0
2169 1 7.23 14.46 18.075000000000003 0 0 0
2170 1 9.037500000000001 16.267500000000002 18.075000000000003 0 0 0
2171 1 9.037500000000001 14.46 19.8825 0 0 0
2172 1 7.23 16.267500000000002 19.8825 0 0 0
2173 1 10.845 14.46 18.075000000000003 0 0 0
2174 1 12.6525 16.267500000000002 18.075000000000003 0 0 0
2175 1 12.6525 14.46 19.8825 0 0 0
2176 1 10.845 16.267500000000002 19.8825 0 0 0
2177 1 14.46 14.46 18.075000000000003 0 0 0
2178 1 16.267500000000002 16.267500000000002 18.075000000000003 0 0 0
2179 1 16.267500000000002 14.46 19.8825 0 0 0
2180 1 14.46 16.267500000000002 19.8825 0 0 0
2181 1 18.075000000000003 14.46 18.075000000000003 0 0 0
2182 1 19.8825 16.267500000000002 18.075000000000003 0 0 0
2183 1 19.8825 14.46 19.8825 0 0 0
2184 1 18.075000000000003 16.267500000000002 19.8825 0 0 0
2185 1 21.69 14.46 18.075000000000003 0 0 0
2186 1 23.497500000000002 16.267500000000002 18.075000000000003 0 0 0
2187 1 23.497500000000002 14.46 19.8825 0 0 0
2188 1 21.69 16.267500000000002 19.8825 0 0 0
2189 1 25.305 14.46 18.075000000000003 0 0 0
2190 1 27.1125 16.267500000000002 18.075000000000003 0 0 0
2191 1 27.1125 14.46 19.8825 0 0 0
2192 1 25.305 16.267500000000002 19.8825 0 0 0
2193 1 28.92 14.46 18.075000000000003 0 0 0
2194 1 30.727500000000003 16.267500000000002 18.075000000000003 0 0 0
2195 1 30.727500000000003 14.46 19.8825 0 0 0
2196 1 28.92 16.267500000000002 19.8825 0 0 0
2197 1 32.535000000000004 14.46 18.075000000000003 0 0 0
2198 1 34.3425 16.267500000000002 18.075000000000003 0 0 0
2199 1 34.3425 14.46 19.8825 0 0 0
2200 1 32.535000000000004 16.267500000000002 19.8825 0 0 0
2201 1 0 18.075000000000003 18.075000000000003 0 0 0
2202 1 1.8075 19.8825 18.075000000000003 0 0 0
2203 1 1.8075 18.075000000000003 19.8825 0 0 0
2204 1 0 19.8825 19.8825 0 0 0
2205 1 3.615 18.075000000000003 18.075000000000003 0 0 0
2206 1 5.4225 19.8825 18.075000000000003 0 0 0
2207 1 5.4225 18.075000000000003 19.8825 0 0 0
2208 1 3.615 19.8825 19.8825 0 0 0
2209 1 7.23 18.075000000000003 18.075000000000003 0 0 0
2210 1 9.037500000000001 19.8825 18.075000000000003 0 0 0
2211 1 9.037500000000001 18.075000000000003 19.8825 0 0 0
2212 1 7.23 19.8825 19.8825 0 0 0
2213 1 10.845 18.075000000000003 18.075000000000003 0 0 0
2214 1 12.6525 19.8825 18.075000000000003 0 0 0
2215 1 12.6525 18.075000000000003 19.8825 0 0 0
2216 1 10.845 19.8825 19.8825 0 0 0
2217 1 14.46 18.075000000000003 18.075000000000003 0 0 0
2218 1 16.267500000000002 19.8825 18.075000000000003 0 0 0
2219 1 16.267500000000002 18.075000000000003 19.8825 0 0 0
2220 1 14.46 19.8825 19.8825 0 0 0
2221 1 18.075000000000003 18.075000000000003 18.075000000000003 0 0 0
2222 1 19.8825 19.8825 18.075000000000003 0 0 0
2223 1 19.8825 18.075000000000003 19.8825 0 0 0
2224 1 18.075000000000003 19.8825 19.8825 0 0 0
2225 1 21.69 18.075000000000003 18.075000000000003 0 0 0
2226 1 23.497500000000002 19.8825 18.075000000000003 0 0 0
2227 1 23.497500000000002 18.075000000000003 19.8825 0 0 0
2228 1 21.69 19.8825 19.8825 0 0 0
2229 1 25.305 18.075000000000003 18.075000000000003 0 0 0
2230 1 27.1125 19.8825 18.075000000000003 0 0 0
2231 1 27.1125 18.075000000000003 19.8825 0 0 0
2232 1 25.305 19.8825 19.8825 0 0 0
2233 1 28.92 18.075000000000003 18.075000000000003 0 0 0
2234 1 30.727500000000003 19.8825 18.075000000000003 0 0 0
2235 1 30.727500000000003 18.075000000000003 19.8825 0 0 0
2236 1 28.92 19.8825 19.8825 0 0 0
2237 1 32.535000000000004 18.075000000000003 18.075000000000003 0 0 0
2238 1 34.3425 19.8825 18.075000000000003 0 0 0
2239 1 34.3425 18.075000000000003 19.8825 0 0 0
2240 1 32.535000000000004 19.8825 19.8825 0 0 0
2241 1 0 21.69 18.075000000000003 0 0 0
2242 1 1.8075 23.497500000000002 18.075000000000003 0 0 0
2243 1 1.8075 21.69 19.8825 0 0 0
2244 1 0 23.497500000000002 19.8825 0 0 0
2245 1 3.615 21.69 18.075000000000003 0 0 0
2246 1 5.4225 23.497500000000002 18.075000000000003 0 0 0
2247 1 5.4225 21.69 19.8825 0 0 0
2248 1 3.615 23.497500000000002 19.8825 0 0 0
2249 1 7.23 21.69 18.075000000000003 0 0 0
2250 1 9.037500000000001 23.497500000000002 18.075000000000003 0 0 0
2251 1 9.037500000000001 21.69 19.8825 0 0 0
2252 1 7.23 23.497500000000002 19.8825 0 0 0
2253 1 10.845 21.69 18.075000000000003 0 0 0
2254 1 12.6525 23.497500000000002 18.075000000000003 0 0 0
2255 1 12.6525 21.69 19.8825 0 0 0
2256 1 10.845 23.497500000000002 19.8825 0 0 0
2257 1 14.46 21.69 18.075000000000003 0 0 0
2258 1 16.267500000000002 23.497500000000002 18.075000000000003 0 0 0
2259 1 16.267500000000002 21.69 19.8825 0 0 0
2260 1 14.46 23.497500000000002 19.8825 0 0 0
2261 1 18.075000000000003 21.69 18.075000000000003 0 0 0
2262 1 19.8825 23.497500000000002 18.075000000000003 0 0 0
2263 1 19.8825 21.69 19.8825 0 0 0
2264 1 18.075000000000003 23.497500000000002 19.8825 0 0 0
2265 1 21.69 21.69 18.075000000000003 0 0 0
2266 1 23.497500000000002 23.497500000000002 18.075000000000003 0 0 0
2267 1 23.497500000000002 21.69 19.8825 0 0 0
2268 1 21.69 23.497500000000002 19.8825 0 0 0
2269 1 25.305 21.69 18.075000000000003 0 0 0
2270 1 27.1125 23.497500000000002 18.075000000000003 0 0 0
2271 1 27.1125 21.69 19.8825 0 0 0
2272 1 25.305 23.497500000000002 19.8825 0 0 0
2273 1 28.92 21.69 18.075000000000003 0 0 0
2274 1 30.727500000000003 23.497500000000002 18.075000000000003 0 0 0
2275 1 30.727500000000003 21.69 19.8825 0 0 0
2276 1 28.92 23.497500000000002 19.8825 0 0 0
2277 1 32.535000000000004 21.69 18.075000000000003 0 0 0
2278 1 34.3425 23.497500000000002 18.075000000000003 0 0 0
2279 1 34.3425 21.69 19.8825 0 0 0
2280 1 32.535000000000004 23.497500000000002 19.8825 0 0 0
2281 1 0 25.305 18.075000000000003 0 0 0
2282 1 1.8075 27.1125 18.075000000000003 0 0 0
2283 1 1.8075 25.305 19.8825 0 0 0
2284 1 0 27.1125 19.8825 0 0 0
2285 1 3.615 25.305 18.075000000000003 0 0 0
2286 1 5.4225 27.1125 18.075000000000003 0 0 0
2287 1 5.4225 25.305 19.8825 0 0 0
2288 1 3.615 27.1125 19.8825 0 0 0
2289 1 7.23 25.305 18.075000000000003 0 0 0
2290 1 9.037500000000001 27.1125 18.075000000000003 0 0 0
2291 1 9.037500000000001 25.305 19.8825 0 0 0
2292 1 7.23 27.1125 19.8825 0 0 0
2293 1 10.845 25.305 18.075000000000003 0 0 0
2294 1 12.6525 27.1125 18.075000000000003 0 0 0
2295 1 12.6525 25.305 19.8825 0 0 0
2296 1 10.845 27.1125 19.8825 0 0 0
2297 1 14.46 25.305 18.075000000000003 0 0 0
2298 1 16.267500000000002 27.1125 18.075000000000003 0 0 0
2299 1 16.267500000000002 25.305 19.8825 0 0 0
2300 1 14.46 27.1125 19.8825 0 0 0
2301 1 18.075000000000003 25.305 18.075000000000003 0 0 0
2302 1 19.8825 27.1125 18.075000000000003 0 0 0
2303 1 19.8825 25.305 19.8825 0 0 0
2304 1 18.075000000000003 27.1125 19.8825 0 0 0
2305 1 21.69 25.305 18.075000000000003 0 0 0
2306 1 23.497500000000002 27.1125 18.075000000000003 0 0 0
2307 1 23.497500000000002 25.305 19.8825 0 0 0
2308 1 21.69 27.1125 19.8825 0 0 0
2309 1 25.305 25.305 18.075000000000003 0 0 0
2310 1 27.1125 27.1125 18.075000000000003 0 0 0
2311 1 27.1125 25.305 19.8825 0 0 0
2312 1 25.305 27.1125 19.8825 0 0 0
2313 1 28.92 25.305 18.075000000000003 0 0 0
2314 1 30.727500000000003 27.1125 18.075000000000003 0 0 0
2315 1 30.727500000000003 25.305 19.8825 0 0 0
2316 1 28.92 27.1125 19.8825 0 0 0
2317 1 32.535000000000004 25.305 18.075000000000003 0 0 0
2318 1 34.3425 27.1125 18.075000000000003 0 0 0
2319 1 34.3425 25.305 19.8825 0 0 0
2320 1 32.535000000000004 27.1125 19.8825 0 0 0
2321 1 0 28.92 18.075000000000003 0 0 0
2322 1 1.8075 30.727500000000003 18.075000000000003 0 0 0
2323 1 1.8075 28.92 19.8825 0 0 0
2324 1 0 30.727500000000003 19.8825 0 0 0
2325 1 3.615 28.92 18.075000000000003 0 0 0
2326 1 5.4225 30.727500000000003 18.075000000000003 0 0 0
2327 1 5.4225 28.92 19.8825 0 0 0
2328 1 3.615 30.727500000000003 19.8825 0 0 0
2329 1 7.23 28.92 18.075000000000003 0 0 0
2330 1 9.037500000000001 30.727500000000003 18.075000000000003 0 0 0
2331 1 9.037500000000001 28.92 19.8825 0 0 0
2332 1 7.23 30.727500000000003 19.8825 0 0 0
2333 1 10.845 28.92 18.075000000000003 0 0 0
2334 1 12.6525 30.727500000000003 18.075000000000003 0 0 0
2335 1 12.6525 28.92 19.8825 0 0 0
2336 1 10.845 30.727500000000003 19.8825 0 0 0
2337 1 14.46 28.92 18.075000000000003 0 0 0
2338 1 16.267500000000002 30.727500000000003 18.075000000000003 0 0 0
2339 1 16.267500000000002 28.92 19.8825 0 0 0
2340 1 14.46 30.727500000000003 19.8825 0 0 0
2341 1 18.075000000000003 28.92 18.075000000000003 0 0 0
2342 1 19.8825 30.727500000000003 18.075000000000003 0 0 0
2343 1 19.8825 28.92 19.8825 0 0 0
2344 1 18.075000000000003 30.727500000000003 19.8825 0 0 0
2345 1 21.69 28.92 18.075000000000003 0 0 0
2346 1 23.497500000000002 30.727500000000003 18.075000000000003 0 0 0
2347 1 23.497500000000002 28.92 19.8825 0 0 0
2348 1 21.69 30.727500000000003 19.8825 0 0 0
2349 1 25.305 28.92 18.075000000000003 0 0 0
2350 1 27.1125 30.727500000000003 18.075000000000003 0 0 0
2351 1 27.1125 28.92 19.8825 0 0 0
2352 1 25.305 30.727500000000003 19.8825 0 0 0
2353 1 28.92 28.92 18.075000000000003 0 0 0
2354 1 30.727500000000003 30.727500000000003 18.075000000000003 0 0 0
2355 1 30.727500000000003 28.92 19.8825 0 0 0
2356 1 28.92 30.727500000000003 19.8825 0 0 0
2357 1 32.535000000000004 28.92 18.075000000000003 0 0 0
2358 1 34.3425 30.727500000000003 18.075000000000003 0 0 0
2359 1 34.3425 28.92 19.8825 0 0 0
2360 1 32.535000000000004 30.727500000000003 19.8825 0 0 0
2361 1 0 32.535000000000004 18.075000000000003 0 0 0
2362 1 1.8075 34.3425 18.075000000000003 0 0 0
2363 1 1.8075 32.535000000000004 19.8825 0 0 0
2364 1 0 34.3425 19.8825 0 0 0
2365 1 3.615 32.535000000000004 18.075000000000003 0 0 0
2366 1 5.4225 34.3425 18.075000000000003 0 0 0
2367 1 5.4225 32.535000000000004 19.8825 0 0 0
2368 1 3.615 34.3425 19.8825 0 0 0
2369 1 7.23 32.535000000000004 18.075000000000003 0 0 0
2370 1 9.037500000000001 34.3425 18.075000000000003 0 0 0
2371 1 9.037500000000001 32.535000000000004 19.8825 0 0 0
2372 1 7.23 34.3425 19.8825 0 0 0
2373 1 10.845 32.535000000000004 18.075000000000003 0 0 0
2374 1 12.6525 34.3425 18.075000000000003 0 0 0
2375 1 12.6525 32.535000000000004 19.8825 0 0 0
2376 1 10.845 34.3425 19.8825 0 0 0
2377 1 14.46 32.535000000000004 18.075000000000003 0 0 0
2378 1 16.267500000000002 34.3425 18.075000000000003 0 0 0
2379 1 16.267500000000002 32.535000000000004 19.8825 0 0 0
2380 1 14.46 34.3425 19.8825 0 0 0
2381 1 18.075000000000003 32.535000000000004 18.075000000000003 0 0 0
2382 1 19.8825 34.3425 18.075000000000003 0 0 0
2383 1 19.8825 32.535000000000004 19.8825 0 0 0
2384 1 18.075000000000003 34.3425 19.8825 0 0 0
2385 1 21.69 32.535000000000004 18.075000000000003 0 0 0
2386 1 23.497500000000002 34.3425 18.075000000000003 0 0 0
2387 1 23.497500000000002 32.535000000000004 19.8825 0 0 0
2388 1 21.69 34.3425 19.8825 0 0 0
2389 1 25.305 32.535000000000004 18.075000000000003 0 0 0
2390 1 27.1125 34.3425 18.075000000000003 0 0 0
2391 1 27.1125 32.535000000000004 19.8825 0 0 0
2392 1 25.305 34.3425 19.8825 0 0 0
2393 1 28.92 32.535000000000004 18.075000000000003 0 0 0
2394 1 30.727500000000003 34.3425 18.075000000000003 0 0 0
2395 1 30.727500000000003 32.535000000000004 19.8825 0 0 0
2396 1 28.92 34.3425 19.8825 0 0 0
2397 1 32.535000000000004 32.535000000000004 18.075000000000003 0 0 0
2398 1 34.3425 34.3425 18.075000000000003 0 0 0
2399 1 34.3425 32.535000000000004 19.8825 0 0 0
2400 1 32.535000000000004 34.3425 19.8825 0 0 0
2401 1 0 0 21.69 0 0 0
2402 1 1.8075 1.8075 21.69 0 0 0
2403 1 1.8075 0 23.497500000000002 0 0 0
2404 1 0 1.8075 23.497500000000002 0 0 0
2405 1 3.615 0 21.69 0 0 0
2406 1 5.4225 1.8075 21.69 0 0 0
2407 1 5.4225 0 23.497500000000002 0 0 0
2408 1 3.615 1.8075 23.497500000000002 0 0 0
2409 1 7.23 0 21.69 0 0 0
2410 1 9.037500000000001 1.8075 21.69 0 0 0
2411 1 9.037500000000001 0 23.497500000000002 0 0 0
2412 1 7.23 1.8075 23.497500000000002 0 0 0
2413 1 10.845 0 21.69 0 0 0
2414 1 12.6525 1.8075 21.69 0 0 0
2415 1 12.6525 0 23.497500000000002 0 0 0
2416 1 10.845 1.8075 23.497500000000002 0 0 0
2417 1 14.46 0 21.69 0 0 0
2418 1 16.267500000000002 1.8075 21.69 0 0 0
2419 1 16.267500000000002 0 23.497500000000002 0 0 0
2420 1 14.46 1.8075 23.497500000000002 0 0 0
2421 1 18.075000000000003 0 21.69 0 0 0
2422 1 19.8825 1.8075 21.69 0 0 0
2423 1 19.8825 0 23.497500000000002 0 0 0
2424 1 18.075000000000003 1.8075 23.497500000000002 0 0 0
2425 1 21.69 0 21.69 0 0 0
2426 1 23.497500000000002 1.8075 21.69 0 0 0
2427 1 23.497500000000002 0 23.497500000000002 0 0 0
2428 1 21.69 1.8075 23.497500000000002 0 0 0
2429 1 25.305 0 21.69 0 0 0
2430 1 27.1125 1.8075 21.69 0 0 0
2431 1 27.1125 0 23.497500000000002 0 0 0
2432 1 25.305 1.8075 23.497500000000002 0 0 0
2433 1 28.92 0 21.69 0 0 0
2434 1 30.727500000000003 1.8075 21.69 0 0 0
2435 1 30.727500000000003 0 23.497500000000002 0 0 0
2436 1 28.92 1.8075 23.497500000000002 0 0 0
2437 1 32.535000000000004 0 21.69 0 0 0
2438 1 34.3425 1.8075 21.69 0 0 0
2439 1 34.3425 0 23.497500000000002 0 0 0
2440 1 32.535000000000004 1.8075 23.497500000000002 0 0 0
2441 1 0 3.615 21.69 0 0 0
2442 1 1.8075 5.4225 21.69 0 0 0
2443 1 1.8075 3.615 23.497500000000002 0 0 0
2444 1 0 5.4225 23.497500000000002 0 0 0
2445 1 3.615 3.615 21.69 0 0 0
2446 1 5.4225 5.4225 21.69 0 0 0
2447 1 5.4225 3.615 23.497500000000002 0 0 0
2448 1 3.615 5.4225 23.497500000000002 0 0 0
2449 1 7.23 3.615 21.69 0 0 0
2450 1 9.037500000000001 5.4225 21.69 0 0 0
2451 1 9.037500000000001 3.615 23.497500000000002 0 0 0
2452 1 7.23 5.4225 23.497500000000002 0 0 0
2453 1 10.845 3.615 21.69 0 0 0
2454 1 12.6525 5.4225 21.69 0 0 0
2455 1 12.6525 3.615 23.497500000000002 0 0 0
2456 1 10.845 5.4225 23.497500000000002 0 0 0
2457 1 14.46 3.615 21.69 0 0 0
2458 1 16.267500000000002 5.4225 21.69 0 0 0
2459 1 16.267500000000002 3.615 23.497500000000002 0 0 0
2460 1 14.46 5.4225 23.497500000000002 0 0 0
2461 1 18.075000000000003 3.615 21.69 0 0 0
2462 1 19.8825 5.4225 21.69 0 0 0
2463 1 19.8825 3.615 23.497500000000002 0 0 0
2464 1 18.075000000000003 5.4225 23.497500000000002 0 0 0
2465 1 21.69 3.615 21.69 0 0 0
2466 1 23.497500000000002 5.4225 21.69 0 0 0
2467 1 23.497500000000002 3.615 23.497500000000002 0 0 0
2468 1 21.69 5.4225 23.497500000000002 0 0 0
2469 1 25.305 3.615 21.69 0 0 0
2470 1 27.1125 5.4225 21.69 0 0 0
2471 1 27.1125 3.615 23.497500000000002 0 0 0
2472 1 25.305 5.4225 23.497500000000002 0 0 0
2473 1 28.92 3.615 21.69 0 0 0
2474 1 30.727500000000003 5.4225 21.69 0 0 0
2475 1 30.727500000000003 3.615 23.497500000000002 0 0 0
2476 1 28.92 5.4225 23.497500000000002 0 0 0
2477 1 32.535000000000004 3.615 21.69 0 0 0
2478 1 34.3425 5.4225 21.69 0 0 0
2479 1 34.3425 3.615 23.497500000000002 0 0 0
2480 1 32.535000000000004 5.4225 23.497500000000002 0 0 0
2481 1 0 7.23 21.69 0 0 0
2482 1 1.8075 9.037500000000001 21.69 0 0 0
2483 1 1.8075 7.23 23.497500000000002 0 0 0
2484 1 0 9.037500000000001 23.497500000000002 0 0 0
2485 1 3.615 7.23 21.69 0 0 0
2486 1 5.4225 9.037500000000001 21.69 0 0 0
2487 1 5.4225 7.23 23.497500000000002 0 0 0
2488 1 3.615 9.037500000000001 23.497500000000002 0 0 0
2489 1 7.23 7.23 21.69 0 0 0
2490 1 9.037500000000001 9.037500000000001 21.69 0 0 0
2491 1 9.037500000000001 7.23 23.497500000000002 0 0 0
2492 1 7.23 9.037500000000001 23.497500000000002 0 0 0
2493 1 10.845 7.23 21.69 0 0 0
2494 1 12.6525 9.037500000000001 21.69 0 0 0
2495 1 12.6525 7.23 23.497500000000002 0 0 0
2496 1 10.845 9.037500000000001 23.497500000000002 0 0 0
2497 1 14.46 7.23 21.69 0 0 0
2498 1 16.267500000000002 9.037500000000001 21.69 0 0 0
2499 1 16.267500000000002 7.23 23.497500000000002 0 0 0
2500 1 14.46 9.037500000000001 23.497500000000002 0 0 0
2501 1 18.075000000000003 7.23 21.69 0 0 0
2502 1 19.8825 9.037500000000001 21.69 0 0 0
2503 1 19.8825 7.23 23.497500000000002 0 0 0
2504 1 18.075000000000003 9.037500000000001 23.497500000000002 0 0 0
2505 1 21.69 7.23 21.69 0 0 0
2506 1 23.497500000000002 9.037500000000001 21.69 0 0 0
2507 1 23.497500000000002 7.23 23.497500000000002 0 0 0
2508 1 21.69 9.037500000000001 23.497500000000002 0 0 0
2509 1 25.305 7.23 21.69 0 0 0
2510 1 27.1125 9.037500000000001 21.69 0 0 0
2511 1 27.1125 7.23 23.497500000000002 0 0 0
2512 1 25.305 9.037500000000001 23.497500000000002 0 0 0
2513 1 28.92 7.23 21.69 0 0 0
2514 1 30.727500000000003 9.037500000000001 21.69 0 0 0
2515 1 30.727500000000003 7.23 23.497500000000002 0 0 0
2516 1 28.92 9.037500000000001 23.497500000000002 0 0 0
2517 1 32.535000000000004 7.23 21.69 0 0 0
2518 1 34.3425 9.037500000000001 21.69 0 0 0
2519 1 34.3425 7.23 23.497500000000002 0 0 0
2520 1 32.535000000000004 9.037500000000001 23.497500000000002 0 0 0
2521 1 0 10.845 21.69 0 0 0
2522 1 1.8075 12.6525 21.69 0 0 0
2523 1 1.8075 10.845 23.497500000000002 0 0 0
2524 1 0 12.6525 23.497500000000002 0 0 0
2525 1 3.615 10.845 21.69 0 0 0
2526 1 5.4225 12.6525 21.69 0 0 0
2527 1 5.4225 10.845 23.497500000000002 0 0 0
2528 1 3.615 12.6525 23.497500000000002 0 0 0
2529 1 7.23 10.845 21.69 0 0 0
2530 1 9.037500000000001 12.6525 21.69 0 0 0
2531 1 9.037500000000001 10.845 23.497500000000002 0 0 0
2532 1 7.23 12.6525 23.497500000000002 0 0 0
2533 1 10.845 10.845 21.69 0 0 0
2534 1 12.6525 12.6525 21.69 0 0 0
2535 1 12.6525 10.845 23.497500000000002 0 0 0
2536 1 10.845 12.6525 23.497500000000002 0 0 0
2537 1 14.46 10.845 21.69 0 0 0
2538 1 16.267500000000002 12.6525 21.69 0 0 0
2539 1 16.267500000000002 10.845 23.497500000000002 0 0 0
2540 1 14.46 12.6525 23.497500000000002 0 0 0
2541 1 18.075000000000003 10.845 21.69 0 0 0
2542 1 19.8825 12.6525 21.69 0 0 0
2543 1 19.8825 10.845 23.497500000000002 0 0 0
2544 1 18.075000000000003 12.6525 23.497500000000002 0 0 0
2545 1 21.69 10.845 21.69 0 0 0
2546 1 23.497500000000002 12.6525 21.69 0 0 0
2547 1 23.497500000000002 10.845 23.497500000000002 0 0 0
2548 1 21.69 12.6525 23.497500000000002 0 0 0
2549 1 25.305 10.845 21.69 0 0 0
2550 1 27.1125 12.6525 21.69 0 0 0
2551 1 27.1125 10.845 23.497500000000002 0 0 0
2552 1 25.305 12.6525 23.497500000000002 0 0 0
2553 1 28.92 10.845 21.69 0 0 0
2554 1 30.727500000000003 12.6525 21.69 0 0 0
2555 1 30.727500000000003 10.845 23.497500000000002 0 0 0
2556 1 28.92 12.6525 23.497500000000002 0 0 0
2557 1 32.535000000000004 10.845 21.69 0 0 0
2558 1 34.3425 12.6525 21.69 0 0 0
2559 1 34.3425 10.845 23.497500000000002 0 0 0
2560 1 32.535000000000004 12.6525 23.497500000000002 0 0 0
2561 1 0 14.46 21.69 0 0 0
2562 1 1.8075 16.267500000000002 21.69 0 0 0
2563 1 1.8075 14.46 23.497500000000002 0 0 0
2564 1 0 16.267500000000002 23.497500000000002 0 0 0
2565 1 3.615 14.46 21.69 0 0 0
2566 1 5.4225 16.267500000000002 21.69 0 0 0
2567 1 5.4225 14.46 23.497500000000002 0 0 0
2568 1 3.615 16.267500000000002 23.497500000000002 0 0 0
2569 1 7.23 14.46 21.69 0 0 0
2570 1 9.037500000000001 16.267500000000002 21.69 0 0 0
2571 1 9.037500000000001 14.46 23.497500000000002 0 0 0
2572 1 7.23 16.267500000000002 23.497500000000002 0 0 0
2573 1 10.845 14.46 21.69 0 0 0
2574 1 12.6525 16.267500000000002 21.69 0 0 0
2575 1 12.6525 14.46 23.497500000000002 0 0 0
2576 1 10.845 16.267500000000002 23.497500000000002 0 0 0
2577 1 14.46 14.46 21.69 0 0 0
2578 1 16.267500000000002 16.267500000000002 21.69 0 0 0
2579 1 16.267500000000002 14.46 23.497500000000002 0 0 0
2580 1 14.46 16.267500000000002 23.497500000000002 0 0 0
2581 1 18.075000000000003 14.46 21.69 0 0 0
2582 1 19.8825 16.267500000000002 21.69 0 0 0
2583 1 19.8825 14.46 23.497500000000002 0 0 0
2584 1 18.075000000000003 16.267500000000002 23.497500000000002 0 0 0
2585 1 21.69 14.46 21.69 0 0 0
2586 1 23.497500000000002 16.267500000000002 21.69 0 0 0
2587 1 23.497500000000002 14.46 23.497500000000002 0 0 0
2588 1 21.69 16.267500000000002 23.497500000000002 0 0 0
2589 1 25.305 14.46 21.69 0 0 0
2590 1 27.1125 16.267500000000002 21.69 0 0 0
2591 1 27.1125 14.46 23.497500000000002 0 0 0
2592 1 25.305 16.267500000000002 23.497500000000002 0 0 0
2593 1 28.92 14.46 21.69 0 0 0
2594 1 30.727500000000003 16.267500000000002 21.69 0 0 0
2595 1 30.727500000000003 14.46 23.497500000000002 0 0 0
2596 1 28.92 16.267500000000002 23.497500000000002 0 0 0
2597 1 32.535000000000004 14.46 21.69 0 0 0
2598 1 34.3425 16.267500000000002 21.69 0 0 0
2599 1 34.3425 14.46 23.497500000000002 0 0 0
2600 1 32.535000000000004 16.267500000000002 23.497500000000002 0 0 0
2601 1 0 18.075000000000003 21.69 0 0 0
2602 1 1.8075 19.8825 21.69 0 0 0
2603 1 1.8075 18.075000000000003 23.497500000000002 0 0 0
2604 1 0 19.8825 23.497500000000002 0 0 0
2605 1 3.615 18.075000000000003 21.69 0 0 0
2606 1 5.4225 19.8825 21.69 0 0 0
2607 1 5.4225 18.075000000000003 23.497500000000002 0 0 0
2608 1 3.615 19.8825 23.497500000000002 0 0 0
2609 1 7.23 18.075000000000003 21.69 0 0 0
2610 1 9.037500000000001 19.8825 21.69 0 0 0
2611 1 9.037500000000001 18.075000000000003 23.497500000000002 0 0 0
2612 1 7.23 19.8825 23.497500000000002 0 0 0
2613 1 10.845 18.075000000000003 21.69 0 0 0
2614 1 12.6525 19.8825 21.69 0 0 0
2615 1 12.6525 18.075000000000003 23.497500000000002 0 0 0
2616 1 10.845 19.8825 23.497500000000002 0 0 0
2617 1 14.46 18.075000000000003 21.69 0 0 0
2618 1 16.267500000000002 19.8825 21.69 0 0 0
2619 1 16.267500000000002 18.075000000000003 23.497500000000002 0 0 0
2620 1 14.46 19.8825 23.497500000000002 0 0 0
2621 1 18.075000000000003 18.075000000000003 21.69 0 0 0
2622 1 19.8825 19.8825 21.69 0 0 0
2623 1 19.8825 18.075000000000003 23.497500000000002 0 0 0
2624 1 18.075000000000003 19.8825 23.497500000000002 0 0 0
2625 1 21.69 18.075000000000003 21.69 0 0 0
2626 1 23.497500000000002 19.8825 21.69 0 0 0
2627 1 23.497500000000002 18.075000000000003 23.497500000000002 0 0 0
2628 1 21.69 19.8825 23.497500000000002 0 0 0
2629 1 25.305 18.075000000000003 21.69 0 0 0
2630 1 27.1125 19.8825 21.69 0 0 0
2631 1 27.1125 18.075000000000003 23.497500000000002 0 0 0
2632 1 25.305 19.8825 23.497500000000002 0 0 0
2633 1 28.92 18.075000000000003 21.69 0 0 0
2634 1 30.727500000000003 19.8825 21.69 0 0 0
2635 1 30.727500000000003 18.075000000000003 23.497500000000002 0 0 0
2636 1 28.92 19.8825 23.497500000000002 0 0 0
2637 1 32.535000000000004 18.075000000000003 21.69 0 0 0
2638 1 34.3425 19.8825 21.69 0 0 0
2639 1 34.3425 18.075000000000003 23.497500000000002 0 0 0
2640 1 32.535000000000004 19.8825 23.497500000000002 0 0 0
2641 1 0 21.69 21.69 0 0 0
2642 1 1.8075 23.497500000000002 21.69 0 0 0
2643 1 1.8075 21.69 23.497500000000002 0 0 0
2644 1 0 23.497500000000002 23.497500000000002 0 0 0
2645 1 3.615 21.69 21.69 0 0 0
2646 1 5.4225 23.497500000000002 21.69 0 0 0
2647 1 5.4225 21.69 23.497500000000002 0 0 0
2648 1 3.615 23.497500000000002 23.497500000000002 0 0 0
2649 1 7.23 21.69 21.69 0 0 0
2650 1 9.037500000000001 23.497500000000002 21.69 0 0 0
2651 1 9.037500000000001 21.69 23.497500000000002 0 0 0
2652 1 7.23 23.497500000000002 23.497500000000002 0 0 0
2653 1 10.845 21.69 21.69 0 0 0
2654 1 12.6525 23.497500000000002 21.69 0 0 0
2655 1 12.6525 21.69 23.497500000000002 0 0 0
2656 1 10.845 23.497500000000002 23.497500000000002 0 0 0
2657 1 14.46 21.69 21.69 0 0 0
2658 1 16.267500000000002 23.497500000000002 21.69 0 0 0
2659 1 16.267500000000002 21.69 23.497500000000002 0 0 0
2660 1 14.46 23.497500000000002 23.497500000000002 0 0 0
2661 1 18.075000000000003 21.69 21.69 0 0 0
2662 1 19.8825 23.497500000000002 21.69 0 0 0
2663 1 19.8825 21.69 23.497500000000002 0 0 0
2664 1 18.075000000000003 23.497500000000002 23.497500000000002 0 0 0
2665 1 21.69 21.69 21.69 0 0 0
2666 1 23.497500000000002 23.497500000000002 21.69 0 0 0
2667 1 23.497500000000002 21.69 23.497500000000002 0 0 0
2668 1 21.69 23.497500000000002 23.497500000000002 0 0 0
2669 1 25.305 21.69 21.69 0 0 0
2670 1 27.1125 23.497500000000002 21.69 0 0 0
2671 1 27.1125 21.69 23.497500000000002 0 0 0
2672 1 25.305 23.497500000000002 23.497500000000002 0 0 0
2673 1 28.92 21.69 21.69 0 0 0
2674 1 30.727500000000003 23.497500000000002 21.69 0 0 0
2675 1 30.727500000000003 21.69 23.497500000000002 0 0 0
2676 1 28.92 23.497500000000002 23.497500000000002 0 0 0
2677 1 32.535000000000004 21.69 21.69 0 0 0
2678 1 34.3425 23.497500000000002 21.69 0 0 0
2679 1 34.3425 21.69 23.497500000000002 0 0 0
2680 1 32.535000000000004 23.497500000000002 23.497500000000002 0 0 0
2681 1 0 25.305 21.69 0 0 0
2682 1 1.8075 27.1125 21.69 0 0 0
2683 1 1.8075 25.305 23.497500000000002 0 0 0
2684 1 0 27.1125 23.497500000000002 0 0 0
2685 1 3.615 25.305 21.69 0 0 0
2686 1 5.4225 27.1125 21.69 0 0 0
2687 1 5.4225 25.305 23.497500000000002 0 0 0
2688 1 3.615 27.1125 23.497500000000002 0 0 0
2689 1 7.23 25.305 21.69 0 0 0
2690 1 9.037500000000001 27.1125 21.69 0 0 0
2691 1 9.037500000000001 25.305 23.497500000000002 0 0 0
2692 1 7.23 27.1125 23.497500000000002 0 0 0
2693 1 10.845 25.305 21.69 0 0 0
2694 1 12.6525 27.1125 21.69 0 0 0
2695 1 12.6525 25.305 23.497500000000002 0 0 0
2696 1 10.845 27.1125 23.497500000000002 0 0 0
2697 1 14.46 25.305 21.69 0 0 0
2698 1 16.267500000000002 27.1125 21.69 0 0 0
2699 1 16.267500000000002 25.305 23.497500000000002 0 0 0
2700 1 14.46 27.1125 23.497500000000002 0 0 0
2701 1 18.075000000000003 25.305 21.69 0 0 0
2702 1 19.8825 27.1125 21.69 0 0 0
2703 1 19.8825 25.305 23.497500000000002 0 0 0
2704 1 18.075000000000003 27.1125 23.497500000000002 0 0 0
2705 1 21.69 25.305 21.69 0 0 0
2706 1 23.497500000000002 27.1125 21.69 0 0 0
2707 1 23.497500000000002 25.305 23.497500000000002 0 0 0
2708 1 21.69 27.1125 23.497500000000002 0 0 0
2709 1 25.305 25.305 21.69 0 0 0
2710 1 27.1125 27.1125 21.69 0 0 0
2711 1 27.1125 25.305 23.497500000000002 0 0 0
2712 1 25.305 27.1125 23.497500000000002 0 0 0
2713 1 28.92 25.305 21.69 0 0 0
2714 1 30.727500000000003 27.1125 21.69 0 0 0
2715 1 30.727500000000003 25.305 23.497500000000002 0 0 0
2716 1 28.92 27.1125 23.497500000000002 0 0 0
2717 1 32.535000000000004 25.305 21.69 0 0 0
2718 1 34.3425 27.1125 21.69 0 0 0
2719 1 34.3425 25.305 23.497500000000002 0 0 0
2720 1 32.535000000000004 27.1125 23.497500000000002 0 0 0
2721 1 0 28.92 21.69 0 0 0
2722 1 1.8075 30.727500000000003 21.69 0 0 0
2723 1 1.8075 28.92 23.497500000000002 0 0 0
2724 1 0 30.727500000000003 23.497500000000002 0 0 0
2725 1 3.615 28.92 21.69 0 0 0
2726 1 5.4225 30.727500000000003 21.69 0 0 0
2727 1 5.4225 28.92 23.497500000000002 0 0 0
2728 1 3.615 30.727500000000003 23.497500000000002 0 0 0
2729 1 7.23 28.92 21.69 0 0 0
2730 1 9.037500000000001 30.727500000000003 21.69 0 0 0
2731 1 9.037500000000001 28.92 23.497500000000002 0 0 0
2732 1 7.23 30.727500000000003 23.497500000000002 0 0 0
2733 1 10.845 28.92 21.69 0 0 0
2734 1 12.6525 30.727500000000003 21.69 0 0 0
2735 1 12.6525 28.92 23.497500000000002 0 0 0
2736 1 10.845 30.727500000000003 23.497500000000002 0 0 0
2737 1 14.46 28.92 21.69 0 0 0
2738 1 16.267500000000002 30.727500000000003 21.69 0 0 0
2739 1 16.267500000000002 28.92 23.497500000000002 0 0 0
2740 1 14.46 30.727500000000003 23.497500000000002 0 0 0
2741 1 18.075000000000003 28.92 21.69 0 0 0
2742 1 19.8825 30.727500000000003 21.69 0 0 0
2743 1 19.8825 28.92 23.497500000000002 0 0 0
2744 1 18.075000000000003 30.727500000000003 23.497500000000002 0 0 0
2745 1 21.69 28.92 21.69 0 0 0
2746 1 23.497500000000002 30.727500000000003 21.69 0 0 0
2747 1 23.497500000000002 28.92 23.497500000000002 0 0 0
2748 1 21.69 30.727500000000003 23.497500000000002 0 0 0
2749 1 25.305 28.92 21.69 0 0 0
2750 1 27.1125 30.727500000000003 21.69 0 0 0
2751 1 27.1125 28.92 23.497500000000002 0 0 0
2752 1 25.305 30.727500000000003 23.497500000000002 0 0 0
2753 1 28.92 28.92 21.69 0 0 0
2754 1 30.727500000000003 30.727500000000003 21.69 0 0 0
2755 1 30.727500000000003 28.92 23.497500000000002 0 0 0
2756 1 28.92 30.727500000000003 23.497500000000002 0 0 0
2757 1 32.535000000000004 28.92 21.69 0 0 0
2758 1 34.3425 30.727500000000003 21.69 0 0 0
2759 1 34.3425 28.92 23.497500000000002 0 0 0
2760 1 32.535000000000004 30.727500000000003 23.497500000000002 0 0 0
2761 1 0 32.535000000000004 21.69 0 0 0
2762 1 1.8075 34.3425 21.69 0 0 0
2763 1 1.8075 32.535000000000004 23.497500000000002 0 0 0
2764 1 0 34.3425 23.497500000000002 0 0 0
2765 1 3.615 32.535000000000004 21.69 0 0 0
2766 1 5.4225 34.3425 21.69 0 0 0
2767 1 5.4225 32.535000000000004 23.497500000000002 0 0 0
2768 1 3.615 34.3425 23.497500000000002 0 0 0
2769 1 7.23 32.535000000000004 21.69 0 0 0
2770 1 9.037500000000001 34.3425 21.69 0 0 0
2771 1 9.037500000000001 32.535000000000004 23.497500000000002 0 0 0
2772 1 7.23 34.3425 23.497500000000002 0 0 0
2773 1 10.845 32.535000000000004 21.69 0 0 0
2774 1 12.6525 34.3425 21.69 0 0 0
2775 1 12.6525 32.535000000000004 23.497500000000002 0 0 0
2776 1 10.845 34.3425 23.497500000000002 0 0 0
2777 1 14.46 32.535000000000004 21.69 0 0 0
2778 1 16.267500000000002 34.3425 21.69 0 0 0
2779 1 16.267500000000002 32.535000000000004 23.497500000000002 0 0 0
2780 1 14.46 34.3425 23.497500000000002 0 0 0
2781 1 18.075000000000003 32.535000000000004 21.69 0 0 0
2782 1 19.8825 34.3425 21.69 0 0 0
2783 1 19.8825 32.535000000000004 23.497500000000002 0 0 0
2784 1 18.075000000000003 34.3425 23.497500000000002 0 0 0
2785 1 21.69 32.535000000000004 21.69 0 0 0
2786 1 23.497500000000002 34.3425 21.69 0 0 0
2787 1 23.497500000000002 32.535000000000004 23.497500000000002 0 0 0
2788 1 21.69 34.3425 23.497500000000002 0 0 0
2789 1 25.305 32.535000000000004 21.69 0 0 0
2790 1 27.1125 34.3425 21.69 0 0 0
2791 1 27.1125 32.535000000000004 23.497500000000002 0 0 0
2792 1 25.305 34.3425 23.497500000000002 0 0 0
2793 1 28.92 32.535000000000004 21.69 0 0 0
2794 1 30.727500000000003 34.3425 21.69 0 0 0
2795 1 30.727500000000003 32.535000000000004 23.497500000000002 0 0 0
2796 1 28.92 34.3425 23.497500000000002 0 0 0
2797 1 32.535000000000004 32.535000000000004 21.69 0 0 0
2798 1 34.3425 34.3425 21.69 0 0 0
2799 1 34.3425 32.535000000000004 23.497500000000002 0 0 0
2800 1 32.535000000000004 34.3425 23.497500000000002 0 0 0
2801 1 0 0 25.305 0 0 0
2802 1 1.8075 1.8075 25.305 0 0 0
2803 1 1.8075 0 27.1125 0 0 0
2804 1 0 1.8075 27.1125 0 0 0
2805 1 3.615 0 25.305 0 0 0
2806 1 5.4225 1.8075 25.305 0 0 0
2807 1 5.4225 0 27.1125 0 0 0
2808 1 3.615 1.8075 27.1125 0 0 0
2809 1 7.23 0 25.305 0 0 0
2810 1 9.037500000000001 1.8075 25.305 0 0 0
2811 1 9.037500000000001 0 27.1125 0 0 0
2812 1 7.23 1.8075 27.1125 0 0 0
2813 1 10.845 0 25.305 0 0 0
2814 1 12.6525 1.8075 25.305 0 0 0
2815 1 12.6525 0 27.1125 0 0 0
2816 1 10.845 1.8075 27.1125 0 0 0
2817 1 14.46 0 25.305 0 0 0
2818 1 16.267500000000002 1.8075 25.305 0 0 0
2819 1 16.267500000000002 0 27.1125 0 0 0
2820 1 14.46 1.8075 27.1125 0 0 0
2821 1 18.075000000000003 0 25.305 0 0 0
2822 1 19.8825 1.8075 25.305 0 0 0
2823 1 19.8825 0 27.1125 0 0 0
2824 1 18.075000000000003 1.8075 27.1125 0 0 0
2825 1 21.69 0 25.305 0 0 0
2826 1 23.497500000000002 1.8075 25.305 0 0 0
2827 1 23.497500000000002 0 27.1125 0 0 0
2828 1 21.69 1.8075 27.1125 0 0 0
2829 1 25.305 0 25.305 0 0 0
2830 1 27.1125 1.8075 25.305 0 0 0
2831 1 27.1125 0 27.1125 0 0 0
2832 1 25.305 1.8075 27.1125 0 0 0
2833 1 28.92 0 25.305 0 0 0
2834 1 30.727500000000003 1.8075 25.305 0 0 0
2835 1 30.727500000000003 0 27.1125 0 0 0
2836 1 28.92 1.8075 27.1125 0 0 0
2837 1 32.535000000000004 0 25.305 0 0 0
2838 1 34.3425 1.8075 25.305 0 0 0
2839 1 34.3425 0 27.1125 0 0 0
2840 1 32.535000000000004 1.8075 27.1125 0 0 0
2841 1 0 3.615 25.305 0 0 0
2842 1 1.8075 5.4225 25.305 0 0 0
2843 1 1.8075 3.615 27.1125 0 0 0
2844 1 0 5.4225 27.1125 0 0 0
2845 1 3.615 3.615 25.305 0 0 0
2846 1 5.4225 5.4225 25.305 0 0 0
2847 1 5.4225 3.615 27.1125 0 0 0
2848 1 3.615 5.4225 27.1125 0 0 0
2849 1 7.23 3.615 25.305 0 0 0
2850 1 9.037500000000001 5.4225 25.305 0 0 0
2851 1 9.037500000000001 3.615 27.1125 0 0 0
2852 1 7.23 5.4225 27.1125 0 0 0
2853 1 10.845 3.615 25.305 0 0 0
2854 1 12.6525 5.4225 25.305 0 0 0
2855 1 12.6525 3.615 27.1125 0 0 0
2856 1 10.845 5.4225 27.1125 0 0 0
2857 1 14.46 3.615 25.305 0 0 0
2858 1 16.267500000000002 5.4225 25.305 0 0 0
2859 1 16.267500000000002 3.615 27.1125 0 0 0
2860 1 14.46 5.4225 27.1125 0 0 0
2861 1 18.075000000000003 3.615 25.305 0 0 0
2862 1 19.8825 5.4225 25.305 0 0 0
2863 1 19.8825 3.615 27.1125 0 0 0
2864 1 18.075000000000003 5.4225 27.1125 0 0 0
2865 1 21.69 3.615 25.305 0 0 0
2866 1 23.497500000000002 5.4225 25.305 0 0 0
2867 1 23.497500000000002 3.615 27.1125 0 0 0
2868 1 21.69 5.4225 27.1125 0 0 0
2869 1 25.305 3.615 25.305 0 0 0
2870 1 27.1125 5.4225 25.305 0 0 0
2871 1 27.1125 3.615 27.1125 0 0 0
2872 1 25.305 5.4225 27.1125 0 0 0
2873 1 28.92 3.615 25.305 0 0 0
2874 1 30.727500000000003 5.4225 25.305 0 0 0
2875 1 30.727500000000003 3.615 27.1125 0 0 0
2876 1 28.92 5.4225 27.1125 0 0 0
2877 1 32.535000000000004 3.615 25.305 0 0 0
2878 1 34.3425 5.4225 25.305 0 0 0
2879 1 34.3425 3.615 27.1125 0 0 0
2880 1 32.535000000000004 5.4225 27.1125 0 0 0
2881 1 0 7.23 25.305 0 0 0
2882 1 1.8075 9.037500000000001 25.305 0 0 0
2883 1 1.8075 7.23 27.1125 0 0 0
2884 1 0 9.037500000000001 27.1125 0 0 0
2885 1 3.615 7.23 25.305 0 0 0
2886 1 5.4225 9.037500000000001 25.305 0 0 0
2887 1 5.4225 7.23 27.1125 0 0 0
2888 1 3.615 9.037500000000001 27.1125 0 0 0
2889 1 7.23 7.23 25.305 0 0 0
2890 1 9.037500000000001 9.037500000000001 25.305 0 0 0
2891 1 9.037500000000001 7.23 27.1125 0 0 0
2892 1 7.23 9.037500000000001 27.1125 0 0 0
2893 1 10.845 7.23 25.305 0 0 0
2894 1 12.6525 9.037500000000001 25.305 0 0 0
2895 1 12.6525 7.23 27.1125 0 0 0
2896 1 10.845 9.037500000000001 27.1125 0 0 0
2897 1 14.46 7.23 25.305 0 0 0
2898 1 16.267500000000002 9.037500000000001 25.305 0 0 0
2899 1 16.267500000000002 7.23 27.1125 0 0 0
2900 1 14.46 9.037500000000001 27.1125 0 0 0
2901 1 18.075000000000003 7.23 25.305 0 0 0
2902 1 19.8825 9.037500000000001 25.305 0 0 0
2903 1 19.8825 7.23 27.1125 0 0 0
2904 1 18.075000000000003 9.037500000000001 27.1125 0 0 0
2905 1 21.69 7.23 25.305 0 0 0
2906 1 23.497500000000002 9.037500000000001 25.305 0 0 0
2907 1 23.497500000000002 7.23 27.1125 0 0 0
2908 1 21.69 9.037500000000001 27.1125 0 0 0
2909 1 25.305 7.23 25.305 0 0 0
2910 1 27.1125 9.037500000000001 25.305 0 0 0
2911 1 27.1125 7.23 27.1125 0 0 0
2912 1 25.305 9.037500000000001 27.1125 0 0 0
2913 1 28.92 7.23 25.305 0 0 0
2914 1 30.727500000000003 9.037500000000001 25.305 0 0 0
2915 1 30.727500000000003 7.23 27.1125 0 0 0
2916 1 28.92 9.037500000000001 27.1125 0 0 0
2917 1 32.535000000000004 7.23 25.305 0 0 0
2918 1 34.3425 9.037500000000001 25.305 0 0 0
2919 1 34.3425 7.23 27.1125 0 0 0
2920 1 32.535000000000004 9.037500000000001 27.1125 0 0 0
2921 1 0 10.845 25.305 0 0 0
2922 1 1.8075 12.6525 25.305 0 0 0
2923 1 1.8075 10.845 27.1125 0 0 0
2924 1 0 12.6525 27.1125 0 0 0
2925 1 3.615 10.845 25.305 0 0 0
2926 1 5.4225 12.6525 25.305 0 0 0
2927 1 5.4225 10.845 27.1125 0 0 0
2928 1 3.615 12.6525 27.1125 0 0 0
2929 1 7.23 10.845 25.305 0 0 0
2930 1 9.037500000000001 12.6525 25.305 0 0 0
2931 1 9.037500000000001 10.845 27.1125 0 0 0
2932 1 7.23 12.6525 27.1125 0 0 0
2933 1 10.845 10.845 25.305 0 0 0
2934 1 12.6525 12.6525 25.305 0 0 0
2935 1 12.6525 10.845 27.1125 0 0 0
2936 1 10.845 12.6525 27.1125 0 0 0
2937 1 14.46 10.845 25.305 0 0 0
2938 1 16.267500000000002 12.6525 25.305 0 0 0
2939 1 16.267500000000002 10.845 27.1125 0 0 0
2940 1 14.46 12.6525 27.1125 0 0 0
2941 1 18.075000000000003 10.845 25.305 0 0 0
2942 1 19.8825 12.6525 25.305 0 0 0
2943 1 19.8825 10.845 27.1125 0 0 0
2944 1 18.075000000000003 12.6525 27.1125 0 0 0
2945 1 21.69 10.845 25.305 0 0 0
2946 1 23.497500000000002 12.6525 25.305 0 0 0
2947 1 23.497500000000002 10.845 27.1125 0 0 0
2948 1 21.69 12.6525 27.1125 0 0 0
2949 1 25.305 10.845 25.305 0 0 0
2950 1 27.1125 12.6525 25.305 0 0 0
2951 1 27.1125 10.845 27.1125 0 0 0
2952 1 25.305 12.6525 27.1125 0 0 0
2953 1 28.92 10.845 25.305 0 0 0
2954 1 30.727500000000003 12.6525 25.305 0 0 0
2955 1 30.727500000000003 10.845 27.1125 0 0 0
2956 1 28.92 12.6525 27.1125 0 0 0
2957 1 32.535000000000004 10.845 25.305 0 0 0
2958 1 34.3425 12.6525 25.305 0 0 0
2959 1 34.3425 10.845 27.1125 0 0 0
2960 1 32.535000000000004 12.6525 27.1125 0 0 0
2961 1 0 14.46 25.305 0 0 0
2962 1 1.8075 16.267500000000002 25.305 0 0 0
2963 1 1.8075 14.46 27.1125 0 0 0
2964 1 0 16.267500000000002 27.1125 0 0 0
2965 1 3.615 14.46 25.305 0 0 0
2966 1 5.4225 16.267500000000002 25.305 0 0 0
2967 1 5.4225 14.46 27.1125 0 0 0
2968 1 3.615 16.267500000000002 27.1125 0 0 0
2969 1 7.23 14.46 25.305 0 0 0
2970 1 9.037500000000001 16.267500000000002 25.305 0 0 0
2971 1 9.037500000000001 14.46 27.1125 0 0 0
2972 1 7.23 16.267500000000002 27.1125 0 0 0
2973 1 10.845 14.46 25.305 0 0 0
2974 1 12.6525 16.267500000000002 25.305 0 0 0
2975 1 12.6525 14.46 27.1125 0 0 0
2976 1 10.845 16.267500000000002 27.1125 0 0 0
2977 1 14.46 14.46 25.305 0 0 0
2978 1 16.267500000000002 16.267500000000002 25.305 0 0 0
2979 1 16.267500000000002 14.46 27.1125 0 0 0
2980 1 14.46 16.267500000000002 27.1125 0 0 0
2981 1 18.075000000000003 14.46 25.305 0 0 0
2982 1 19.8825 16.267500000000002 25.305 0 0 0
2983 1 19.8825 14.46 27.1125 0 0 0
2984 1 18.075000000000003 16.267500000000002 27.1125 0 0 0
2985 1 21.69 14.46 25.305 0 0 0
2986 1 23.497500000000002 16.267500000000002 25.305 0 0 0
2987 1 23.497500000000002 14.46 27.1125 0 0 0
2988 1 21.69 16.267500000000002 27.1125 0 0 0
2989 1 25.305 14.46 25.305 0 0 0
2990 1 27.1125 16.267500000000002 25.305 0 0 0
2991 1 27.1125 14.46 27.1125 0 0 0
2992 1 25.305 16.267500000000002 27.1125 0 0 0
2993 1 28.92 14.46 25.305 0 0 0
2994 1 30.727500000000003 16.267500000000002 25.305 0 0 0
2995 1 30.727500000000003 14.46 27.1125 0 0 0
2996 1 28.92 16.267500000000002 27.1125 0 0 0
2997 1 32.535000000000004 14.46 25.305 0 0 0
2998 1 34.3425 16.267500000000002 25.305 0 0 0
2999 1 34.3425 14.46 27.1125 0 0 0
3000 1 32.535000000000004 16.267500000000002 27.1125 0 0 0
3001 1 0 18.075000000000003 25.305 0 0 0
3002 1 1.8075 19.8825 25.305 0 0 0
3003 1 1.8075 18.075000000000003 27.1125 0 0 0
3004 1 0 19.8825 27.1125 0 0 0
3005 1 3.615 18.075000000000003 25.305 0 0 0
3006 1 5.4225 19.8825 25.305 0 0 0
3007 1 5.4225 18.075000000000003 27.1125 0 0 0
3008 1 3.615 19.8825 27.1125 0 0 0
3009 1 7.23 18.075000000000003 25.305 0 0 0
3010 1 9.037500000000001 19.8825 25.305 0 0 0
3011 1 9.037500000000001 18.075000000000003 27.1125 0 0 0
3012 1 7.23 19.8825 27.1125 0 0 0
3013 1 10.845 18.075000000000003 25.305 0 0 0
3014 1 12.6525 19.8825 25.305 0 0 0
3015 1 12.6525 18.075000000000003 27.1125 0 0 0
3016 1 10.845 19.8825 27.1125 0 0 0
3017 1 14.46 18.075000000000003 25.305 0 0 0
3018 1 16.267500000000002 19.8825 25.305 0 0 0
3019 1 16.267500000000002 18.075000000000003 27.1125 0 0 0
3020 1 14.46 19.8825 27.1125 0 0 0
3021 1 18.075000000000003 18.075000000000003 25.305 0 0 0
3022 1 19.8825 19.8825 25.305 0 0 0
3023 1 19.8825 18.075000000000003 27.1125 0 0 0
3024 1 18.075000000000003 19.8825 27.1125 0 0 0
3025 1 21.69 18.075000000000003 25.305 0 0 0
3026 1 23.497500000000002 19.8825 25.305 0 0 0
3027 1 23.497500000000002 18.075000000000003 27.1125 0 0 0
3028 1 21.69 19.8825 27.1125 0 0 0
3029 1 25.305 18.075000000000003 25.305 0 0 0
3030 1 27.1125 19.8825 25.305 0 0 0
3031 1 27.1125 18.075000000000003 27.1125 0 0 0
3032 1 25.305 19.8825 27.1125 0 0 0
3033 1 28.92 18.075000000000003 25.305 0 0 0
3034 1 30.727500000000003 19.8825 25.305 0 0 0
3035 1 30.727500000000003 18.075000000000003 27.1125 0 0 0
3036 1 28.92 19.8825 27.1125 0 0 0
3037 1 32.535000000000004 18.075000000000003 25.305 0 0 0
3038 1 34.3425 19.8825 25.305 0 0 0
3039 1 34.3425 18.075000000000003 27.1125 0 0 0
3040 1 32.535000000000004 19.8825 27.1125 0 0 0
3041 1 0 21.69 25.305 0 0 0
3042 1 1.8075 23.497500000000002 25.305 0 0 0
3043 1 1.8075 21.69 27.1125 0 0 0
3044 1 0 23.497500000000002 27.1125 0 0 0
3045 1 3.615 21.69 25.305 0 0 0
3046 1 5.4225 23.497500000000002 25.305 0 0 0
3047 1 5.4225 21.69 27.1125 0 0 0
3048 1 3.615 23.497500000000002 27.1125 0 0 0
3049 1 7.23 21.69 25.305 0 0 0
3050 1 9.037500000000001 23.497500000000002 25.305 0 0 0
3051 1 9.037500000000001 21.69 27.1125 0 0 0
3052 1 7.23 23.497500000000002 27.1125 0 0 0
3053 1 10.845 21.69 25.305 0 0 0
3054 1 12.6525 23.497500000000002 25.305 0 0 0
3055 1 12.6525 21.69 27.1125 0 0 0
3056 1 10.845 23.497500000000002 27.1125 0 0 0
3057 1 14.46 21.69 25.305 0 0 0
3058 1 16.267500000000002 23.497500000000002 25.305 0 0 0
3059 1 16.267500000000002 21.69 27.1125 0 0 0
3060 1 14.46 23.497500000000002 27.1125 0 0 0
3061 1 18.075000000000003 21.69 25.305 0 0 0
3062 1 19.8825 23.497500000000002 25.305 0 0 0
3063 1 19.8825 21.69 27.1125 0 0 0
3064 1 18.075000000000003 23.497500000000002 27.1125 0 0 0
3065 1 21.69 21.69 25.305 0 0 0
3066 1 23.497500000000002 23.497500000000002 25.305 0 0 0
3067 1 23.497500000000002 21.69 27.1125 0 0 0
3068 1 21.69 23.497500000000002 27.1125 0 0 0
3069 1 25.305 21.69 25.305 0 0 0
3070 1 27.1125 23.497500000000002 25.305 0 0 0
3071 1 27.1125 21.69 27.1125 0 0 0
3072 1 25.305 23.497500000000002 27.1125 0 0 0
3073 1 28.92 21.69 25.305 0 0 0
3074 1 30.727500000000003 23.497500000000002 25.305 0 0 0
3075 1 30.727500000000003 21.69 27.1125 0 0 0
3076 1 28.92 23.497500000000002 27.1125 0 0 0
3077 1 32.535000000000004 21.69 25.305 0 0 0
3078 1 34.3425 23.497500000000002 25.305 0 0 0
3079 1 34.3425 21.69 27.1125 0 0 0
3080 1 32.535000000000004 23.497500000000002 27.1125 0 0 0
3081 1 0 25.305 25.305 0 0 0
3082 1 1.8075 27.1125 25.305 0 0 0
3083 1 1.8075 25.305 27.1125 0 0 0
3084 1 0 27.1125 27.1125 0 0 0
3085 1 3.615 25.305 25.305 0 0 0
3086 1 5.4225 27.1125 25.305 0 0 0
3087 1 5.4225 25.305 27.1125 0 0 0
3088 1 3.615 27.1125 27.1125 0 0 0
3089 1 7.23 25.305 25.305 0 0 0
3090 1 9.037500000000001 27.1125 25.305 0 0 0
3091 1 9.037500000000001 25.305 27.1125 0 0 0
3092 1 7.23 27.1125 27.1125 0 0 0
3093 1 10.845 25.305 25.305 0 0 0
3094 1 12.6525 27.1125 25.305 0 0 0
3095 1 12.6525 25.305 27.1125 0 0 0
3096 1 10.845 27.1125 27.1125 0 0 0
3097 1 14.46 25.305 25.305 0 0 0
3098 1 16.267500000000002 27.1125 25.305 0 0 0
3099 1 16.267500000000002 25.305 27.1125 0 0 0
3100 1 14.46 27.1125 27.1125 0 0 0
3101 1 18.075000000000003 25.305 25.305 0 0 0
3102 1 19.8825 27.1125 25.305 0 0 0
3103 1 19.8825 25.305 27.1125 0 0 0
3104 1 18.075000000000003 27.1125 27.1125 0 0 0
3105 1 21.69 25.305 25.305 0 0 0
3106 1 23.497500000000002 27.1125 25.305 0 0 0
3107 1 23.497500000000002 25.305 27.1125 0 0 0
3108 1 21.69 27.1125 27.1125 0 0 0
3109 1 25.305 25.305 25.305 0 0 0
3110 1 27.1125 27.1125 25.305 0 0 0
3111 1 27.1125 25.305 27.1125 0 0 0
3112 1 25.305 27.1125 27.1125 0 0 0
3113 1 28.92 25.305 25.305 0 0 0
3114 1 30.727500000000003 27.1125 25.305 0 0 0
3115 1 30.727500000000003 25.305 27.1125 0 0 0
3116 1 28.92 27.1125 27.1125 0 0 0
3117 1 32.535000000000004 25.305 25.305 0 0 0
3118 1 34.3425 27.1125 25.305 0 0 0
3119 1 34.3425 25.305 27.1125 0 0 0
3120 1 32.535000000000004 27.1125 27.1125 0 0 0
3121 1 0 28.92 25.305 0 0 0
3122 1 1.8075 30.727500000000003 25.305 0 0 0
3123 1 1.8075 28.92 27.1125 0 0 0
3124 1 0 30.727500000000003 27.1125 0 0 0
3125 1 3.615 28.92 25.305 0 0 0
3126 1 5.4225 30.727500000000003 25.305 0 0 0
3127 1 5.4225 28.92 27.1125 0 0 0
3128 1 3.615 30.727500000000003 27.1125 0 0 0
3129 1 7.23 28.92 25.305 0 0 0
3130 1 9.037500000000001 30.727500000000003 25.305 0 0 0
3131 1 9.037500000000001 28.92 27.1125 0 0 0
3132 1 7.23 30.727500000000003 27.1125 0 0 0
3133 1 10.845 28.92 25.305 0 0 0
3134 1 12.6525 30.727500000000003 25.305 0 0 0
3135 1 12.6525 28.92 27.1125 0 0 0
3136 1 10.845 30.727500000000003 27.1125 0 0 0
3137 1 14.46 28.92 25.305 0 0 0
3138 1 16.267500000000002 30.727500000000003 25.305 0 0 0
3139 1 16.267500000000002 28.92 27.1125 0 0 0
3140 1 14.46 30.727500000000003 27.1125 0 0 0
3141 1 18.075000000000003 28.92 25.305 0 0 0
3142 1 19.8825 30.727500000000003 25.305 0 0 0
3143 1 19.8825 28.92 27.1125 0 0 0
3144 1 18.075000000000003 30.727500000000003 27.1125 0 0 0
3145 1 21.69 28.92 25.305 0 0 0
3146 1 23.497500000000002 30.727500000000003 25.305 0 0 0
3147 1 23.497500000000002 28.92 27.1125 0 0 0
3148 1 21.69 30.727500000000003 27.1125 0 0 0
3149 1 25.305 28.92 25.305 0 0 0
3150 1 27.1125 30.727500000000003 25.305 0 0 0
3151 1 27.1125 28.92 27.1125 0 0 0
3152 1 25.305 30.727500000000003 27.1125 0 0 0
3153 1 28.92 28.92 25.305 0 0 0
3154 1 30.727500000000003 30.727500000000003 25.305 0 0 0
3155 1 30.727500000000003 28.92 27.1125 0 0 0
3156 1 28.92 30.727500000000003 27.1125 0 0 0
3157 1 32.535000000000004 28.92 25.305 0 0 0
3158 1 34.3425 30.727500000000003 25.305 0 0 0
3159 1 34.3425 28.92 27.1125 0 0 0
3160 1 32.535000000000004 30.727500000000003 27.1125 0 0 0
3161 1 0 32.535000000000004 25.305 0 0 0
3162 1 1.8075 34.3425 25.305 0 0 0
3163 1 1.8075 32.535000000000004 27.1125 0 0 0
3164 1 0 34.3425 27.1125 0 0 0
3165 1 3.615 32.535000000000004 25.305 0 0 0
3166 1 5.4225 34.3425 25.305 0 0 0
3167 1 5.4225 32.535000000000004 27.1125 0 0 0
3168 1 3.615 34.3425 27.1125 0 0 0
3169 1 7.23 32.535000000000004 25.305 0 0 0
3170 1 9.037500000000001 34.3425 25.305 0 0 0
3171 1 9.037500000000001 32.535000000000004 27.1125 0 0 0
3172 1 7.23 34.3425 27.1125 0 0 0
3173 1 10.845 32.535000000000004 25.305 0 0 0
3174 1 12.6525 34.3425 25.305 0 0 0
3175 1 12.6525 32.535000000000004 27.1125 0 0 0
3176 1 10.845 34.3425 27.1125 0 0 0
3177 1 14.46 32.535000000000004 25.305 0 0 0
3178 1 16.267500000000002 34.3425 25.305 0 0 0
3179 1 16.267500000000002 32.535000000000004 27.1125 0 0 0
3180 1 14.46 34.3425 27.1125 0 0 0
3181 1 18.075000000000003 32.535000000000004 25.305 0 0 0
3182 1 19.8825 34.3425 25.305 0 0 0
3183 1 19.8825 32.535000000000004 27.1125 0 0 0
3184 1 18.075000000000003 34.3425 27.1125 0 0 0
3185 1 21.69 32.535000000000004 25.305 0 0 0
3186 1 23.497500000000002 34.3425 25.305 0 0 0
3187 1 23.497500000000002 32.535000000000004 27.1125 0 0 0
3188 1 21.69 34.3425 27.1125 0 0 0
3189 1 25.305 32.535000000000004 25.305 0 0 0
3190 1 27.1125 34.3425 25.305 0 0 0
3191 1 27.1125 32.535000000000004 27.1125 0 0 0
3192 1 25.305 34.3425 27.1125 0 0 0
3193 1 28.92 32.535000000000004 25.305 0 0 0
3194 1 30.727500000000003 34.3425 25.305 0 0 0
3195 1 30.727500000000003 32.535000000000004 27.1125 0 0 0
3196 1 28.92 34.3425 27.1125 0 0 0
3197 1 32.535000000000004 32.535000000000004 25.305 0 0 0
3198 1 34.3425 34.3425 25.305 0 0 0
3199 1 34.3425 32.535000000000004 27.1125 0 0 0
3200 1 32.535000000000004 34.3425 27.1125 0 0 0
3201 1 0 0 28.92 0 0 0
3202 1 1.8075 1.8075 28.92 0 0 0
3203 1 1.8075 0 30.727500000000003 0 0 0
3204 1 0 1.8075 30.727500000000003 0 0 0
3205 1 3.615 0 28.92 0 0 0
3206 1 5.4225 1.8075 28.92 0 0 0
3207 1 5.4225 0 30.727500000000003 0 0 0
3208 1 3.615 1.8075 30.727500000000003 0 0 0
3209 1 7.23 0 28.92 0 0 0
3210 1 9.037500000000001 1.8075 28.92 0 0 0
3211 1 9.037500000000001 0 30.727500000000003 0 0 0
3212 1 7.23 1.8075 30.727500000000003 0 0 0
3213 1 10.845 0 28.92 0 0 0
3214 1 12.6525 1.8075 28.92 0 0 0
3215 1 12.6525 0 30.727500000000003 0 0 0
3216 1 10.845 1.8075 30.727500000000003 0 0 0
3217 1 14.46 0 28.92 0 0 0
3218 1 16.267500000000002 1.8075 28.92 0 0 0
3219 1 16.267500000000002 0 30.727500000000003 0 0 0
3220 1 14.46 1.8075 30.727500000000003 0 0 0
3221 1 18.075000000000003 0 28.92 0 0 0
3222 1 19.8825 1.8075 28.92 0 0 0
3223 1 19.8825 0 30.727500000000003 0 0 0
3224 1 18.075000000000003 1.8075 30.727500000000003 0 0 0
3225 1 21.69 0 28.92 0 0 0
3226 1 23.497500000000002 1.8075 28.92 0 0 0
3227 1 23.497500000000002 0 30.727500000000003 0 0 0
3228 1 21.69 1.8075 30.727500000000003 0 0 0
3229 1 25.305 0 28.92 0 0 0
3230 1 27.1125 1.8075 28.92 0 0 0
3231 1 27.1125 0 30.727500000000003 0 0 0
3232 1 25.305 1.8075 30.727500000000003 0 0 0
3233 1 28.92 0 28.92 0 0 0
3234 1 30.727500000000003 1.8075 28.92 0 0 0
3235 1 30.727500000000003 0 30.727500000000003 0 0 0
3236 1 28.92 1.8075 30.727500000000003 0 0 0
3237 1 32.535000000000004 0 28.92 0 0 0
3238 1 34.3425 1.8075 28.92 0 0 0
3239 1 34.3425 0 30.727500000000003 0 0 0
3240 1 32.535000000000004 1.8075 30.727500000000003 0 0 0
3241 1 0 3.615 28.92 0 0 0
3242 1 1.8075 5.4225 28.92 0 0 0
3243 1 1.8075 3.615 30.727500000000003 0 0 0
3244 1 0 5.4225 30.727500000000003 0 0 0
3245 1 3.615 3.615 28.92 0 0 0
3246 1 5.4225 5.4225 28.92 0 0 0
3247 1 5.4225 3.615 30.727500000000003 0 0 0
3248 1 3.615 5.4225 30.727500000000003 0 0 0
3249 1 7.23 3.615 28.92 0 0 0
3250 1 9.037500000000001 5.4225 28.92 0 0 0
3251 1 9.037500000000001 3.615 30.727500000000003 0 0 0
3252 1 7.23 5.4225 30.727500000000003 0 0 0
3253 1 10.845 3.615 28.92 0 0 0
3254 1 12.6525 5.4225 28.92 0 0 0
3255 1 12.6525 3.615 30.727500000000003 0 0 0
3256 1 10.845 5.4225 30.727500000000003 0 0 0
3257 1 14.46 3.615 28.92 0 0 0
3258 1 16.267500000000002 5.4225 28.92 0 0 0
3259 1 16.267500000000002 3.615 30.727500000000003 0 0 0
3260 1 14.46 5.4225 30.727500000000003 0 0 0
3261 1 18.075000000000003 3.615 28.92 0 0 0
3262 1 19.8825 5.4225 28.92 0 0 0
3263 1 19.8825 3.615 30.727500000000003 0 0 0
3264 1 18.075000000000003 5.4225 30.727500000000003 0 0 0
3265 1 21.69 3.615 28.92 0 0 0
3266 1 23.497500000000002 5.4225 28.92 0 0 0
3267 1 23.497500000000002 3.615 30.727500000000003 0 0 0
3268 1 21.69 5.4225 30.727500000000003 0 0 0
3269 1 25.305 3.615 28.92 0 0 0
3270 1 27.1125 5.4225 28.92 0 0 0
3271 1 27.1125 3.615 30.727500000000003 0 0 0
3272 1 25.305 5.4225 30.727500000000003 0 0 0
3273 1 28.92 3.615 28.92 0 0 0
3274 1 30.727500000000003 5.4225 28.92 0 0 0
3275 1 30.727500000000003 3.615 30.727500000000003 0 0 0
3276 1 28.92 5.4225 30.727500000000003 0 0 0
3277 1 32.535000000000004 3.615 28.92 0 0 0
3278 1 34.3425 5.4225 28.92 0 0 0
3279 1 34.3425 3.615 30.727500000000003 0 0 0
3280 1 32.535000000000004 5.4225 30.727500000000003 0 0 0
3281 1 0 7.23 28.92 0 0 0
3282 1 1.8075 9.037500000000001 28.92 0 0 0
3283 1 1.8075 7.23 30.727500000000003 0 0 0
3284 1 0 9.037500000000001 30.727500000000003 0 0 0
3285 1 3.615 7.23 28.92 0 0 0
3286 1 5.4225 9.037500000000001 28.92 0 0 0
3287 1 5.4225 7.23 30.727500000000003 0 0 0
3288 1 3.615 9.037500000000001 30.727500000000003 0 0 0
3289 1 7.23 7.23 28.92 0 0 0
3290 1 9.037500000000001 9.037500000000001 28.92 0 0 0
3291 1 9.037500000000001 7.23 30.727500000000003 0 0 0
3292 1 7.23 9.037500000000001 30.727500000000003 0 0 0
3293 1 10.845 7.23 28.92 0 0 0
3294 1 12.6525 9.037500000000001 28.92 0 0 0
3295 1 12.6525 7.23 30.727500000000003 0 0 0
3296 1 10.845 9.037500000000001 30.727500000000003 0 0 0
3297 1 14.46 7.23 28.92 0 0 0
3298 1 16.267500000000002 9.037500000000001 28.92 0 0 0
3299 1 16.267500000000002 7.23 30.727500000000003 0 0 0
3300 1 14.46 9.037500000000001 30.727500000000003 0 0 0
3301 1 18.075000000000003 7.23 28.92 0 0 0
3302 1 19.8825 9.037500000000001 28.92 0 0 0
3303 1 19.8825 7.23 30.727500000000003 0 0 0
3304 1 18.075000000000003 9.037500000000001 30.727500000000003 0 0 0
3305 1 21.69 7.23 28.92 0 0 0
3306 1 23.497500000000002 9.037500000000001 28.92 0 0 0
3307 1 23.497500000000002 7.23 30.727500000000003 0 0 0
3308 1 21.69 9.037500000000001 30.727500000000003 0 0 0
3309 1 25.305 7.23 28.92 0 0 0
3310 1 27.1125 9.037500000000001 28.92 0 0 0
3311 1 27.1125 7.23 30.727500000000003 0 0 0
3312 1 25.305 9.037500000000001 30.727500000000003 0 0 0
3313 1 28.92 7.23 28.92 0 0 0
3314 1 30.727500000000003 9.037500000000001 28.92 0 0 0
3315 1 30.727500000000003 7.23 30.727500000000003 0 0 0
3316 1 28.92 9.037500000000001 30.727500000000003 0 0 0
3317 1 32.535000000000004 7.23 28.92 0 0 0
3318 1 34.3425 9.037500000000001 28.92 0 0 0
3319 1 34.3425 7.23 30.727500000000003 0 0 0
3320 1 32.535000000000004 9.037500000000001 30.727500000000003 0 0 0
3321 1 0 10.845 28.92 0 0 0
3322 1 1.8075 12.6525 28.92 0 0 0
3323 1 1.8075 10.845 30.727500000000003 0 0 0
3324 1 0 12.6525 30.727500000000003 0 0 0
3325 1 3.615 10.845 28.92 0 0 0
3326 1 5.4225 12.6525 28.92 0 0 0
3327 1 5.4225 10.845 30.727500000000003 0 0 0
3328 1 3.615 12.6525 30.727500000000003 0 0 0
3329 1 7.23 10.845 28.92 0 0 0
3330 1 9.037500000000001 12.6525 28.92 0 0 0
3331 1 9.037500000000001 10.845 30.727500000000003 0 0 0
3332 1 7.23 12.6525 30.727500000000003 0 0 0
3333 1 10.845 10.845 28.92 0 0 0
3334 1 12.6525 12.6525 28.92 0 0 0
3335 1 12.6525 10.845 30.727500000000003 0 0 0
3336 1 10.845 12.6525 30.727500000000003 0 0 0
3337 1 14.46 10.845 28.92 0 0 0
3338 1 16.267500000000002 12.6525 28.92 0 0 0
3339 1 16.267500000000002 10.845 30.727500000000003 0 0 0
3340 1 14.46 12.6525 30.727500000000003 0 0 0
3341 1 18.075000000000003 10.845 28.92 0 0 0
3342 1 19.8825 12.6525 28.92 0 0 0
3343 1 19.8825 10.845 30.727500000000003 0 0 0
3344 1 18.075000000000003 12.6525 30.727500000000003 0 0 0
3345 1 21.69 10.845 28.92 0 0 0
3346 1 23.497500000000002 12.6525 28.92 0 0 0
3347 1 23.497500000000002 10.845 30.727500000000003 0 0 0
3348 1 21.69 12.6525 30.727500000000003 0 0 0
3349 1 25.305 10.845 28.92 0 0 0
3350 1 27.1125 12.6525 28.92 0 0 0
3351 1 27.1125 10.845 30.727500000000003 0 0 0
3352 1 25.305 12.6525 30.727500000000003 0 0 0
3353 1 28.92 10.845 28.92 0 0 0
3354 1 30.727500000000003 12.6525 28.92 0 0 0
3355 1 30.727500000000003 10.845 30.727500000000003 0 0 0
3356 1 28.92 12.6525 30.727500000000003 0 0 0
3357 1 32.535000000000004 10.845 28.92 0 0 0
3358 1 34.3425 12.6525 28.92 0 0 0
3359 1 34.3425 10.845 30.727500000000003 0 0 0
3360 1 32.535000000000004 12.6525 30.727500000000003 0 0 0
3361 1 0 14.46 28.92 0 0 0
3362 1 1.8075 16.267500000000002 28.92 0 0 0
3363 1 1.8075 14.46 30.727500000000003 0 0 0
3364 1 0 16.267500000000002 30.727500000000003 0 0 0
3365 1 3.615 14.46 28.92 0 0 0
3366 1 5.4225 16.267500000000002 28.92 0 0 0
3367 1 5.4225 14.46 30.727500000000003 0 0 0
3368 1 3.615 16.267500000000002 30.727500000000003 0 0 0
3369 1 7.23 14.46 28.92 0 0 0
3370 1 9.037500000000001 16.267500000000002 28.92 0 0 0
3371 1 9.037500000000001 14.46 30.727500000000003 0 0 0
3372 1 7.23 16.267500000000002 30.727500000000003 0 0 0
3373 1 10.845 14.46 28.92 0 0 0
3374 1 12.6525 16.267500000000002 28.92 0 0 0
3375 1 12.6525 14.46 30.727500000000003 0 0 0
3376 1 10.845 16.267500000000002 30.727500000000003 0 0 0
3377 1 14.46 14.46 28.92 0 0 0
3378 1 16.267500000000002 16.267500000000002 28.92 0 0 0
3379 1 16.267500000000002 14.46 30.727500000000003 0 0 0
3380 1 14.46 16.267500000000002 30.727500000000003 0 0 0
3381 1 18.075000000000003 14.46 28.92 0 0 0
3382 1 19.8825 16.267500000000002 28.92 0 0 0
3383 1 19.8825 14.46 30.727500000000003 0 0 0
3384 1 18.075000000000003 16.267500000000002 30.727500000000003 0 0 0
3385 1 21.69 14.46 28.92 0 0 0
3386 1 23.497500000000002 16.267500000000002 28.92 0 0 0
3387 1 23.497500000000002 14.46 30.727500000000003 0 0 0
3388 1 21.69 16.267500000000002 30.727500000000003 0 0 0
3389 1 25.305 14.46 28.92 0 0 0
3390 1 27.1125 16.267500000000002 28.92 0 0 0
3391 1 27.1125 14.46 30.727500000000003 0 0 0
3392 1 25.305 16.267500000000002 30.727500000000003 0 0 0
3393 1 28.92 14.46 28.92 0 0 0
3394 1 30.727500000000003 16.267500000000002 28.92 0 0 0
3395 1 30.727500000000003 14.46 30.727500000000003 0 0 0
3396 1 28.92 16.267500000000002 30.727500000000003 0 0 0
3397 1 32.535000000000004 14.46 28.92 0 0 0
3398 1 34.3425 16.267500000000002 28.92 0 0 0
3399 1 34.3425 14.46 30.727500000000003 0 0 0
3400 1 32.535000000000004 16.267500000000002 30.727500000000003 0 0 0
3401 1 0 18.075000000000003 28.92 0 0 0
3402 1 1.8075 19.8825 28.92 0 0 0
3403 1 1.8075 18.075000000000003 30.727500000000003 0 0 0
3404 1 0 19.8825 30.727500000000003 0 0 0
3405 1 3.615 18.075000000000003 28.92 0 0 0
3406 1 5.4225 19.8825 28.92 0 0 0
3407 1 5.4225 18.075000000000003 30.727500000000003 0 0 0
3408 1 3.615 19.8825 30.727500000000003 0 0 0
3409 1 7.23 18.075000000000003 28.92 0 0 0
3410 1 9.037500000000001 19.8825 28.92 0 0 0
3411 1 9.037500000000001 18.075000000000003 30.727500000000003 0 0 0
3412 1 7.23 19.8825 30.727500000000003 0 0 0
3413 1 10.845 18.075000000000003 28.92 0 0 0
3414 1 12.6525 19.8825 28.92 0 0 0
3415 1 12.6525 18.075000000000003 30.727500000000003 0 0 0
3416 1 10.845 19.8825 30.727500000000003 0 0 0
3417 1 14.46 18.075000000000003 28.92 0 0 0
3418 1 16.267500000000002 19.8825 28.92 0 0 0
3419 1 16.267500000000002 18.075000000000003 30.727500000000003 0 0 0
3420 1 14.46 19.8825 30.727500000000003 0 0 0
3421 1 18.075000000000003 18.075000000000003 28.92 0 0 0
3422 1 19.8825 19.8825 28.92 0 0 0
3423 1 19.8825 18.075000000000003 30.727500000000003 0 0 0
3424 1 18.075000000000003 19.8825 30.727500000000003 0 0 0
3425 1 21.69 18.075000000000003 28.92 0 0 0
3426 1 23.497500000000002 19.8825 28.92 0 0 0
3427 1 23.497500000000002 18.075000000000003 30.727500000000003 0 0 0
3428 1 21.69 19.8825 30.727500000000003 0 0 0
3429 1 25.305 18.075000000000003 28.92 0 0 0
3430 1 27.1125 19.8825 28.92 0 0 0
3431 1 27.1125 18.075000000000003 30.727500000000003 0 0 0
3432 1 25.305 19.8825 30.727500000000003 0 0 0
3433 1 28.92 18.075000000000003 28.92 0 0 0
3434 1 30.727500000000003 19.8825 28.92 0 0 0
3435 1 30.727500000000003 18.075000000000003 30.727500000000003 0 0 0
3436 1 28.92 19.8825 30.727500000000003 0 0 0
3437 1 32.535000000000004 18.075000000000003 28.92 0 0 0
3438 1 34.3425 19.8825 28.92 0 0 0
3439 1 34.3425 18.075000000000003 30.727500000000003 0 0 0
3440 1 32.535000000000004 19.8825 30.727500000000003 0 0 0
3441 1 0 21.69 28.92 0 0 0
3442 1 1.8075 23.497500000000002 28.92 0 0 0
3443 1 1.8075 21.69 30.727500000000003 0 0 0
3444 1 0 23.497500000000002 30.727500000000003 0 0 0
3445 1 3.615 21.69 28.92 0 0 0
3446 1 5.4225 23.497500000000002 28.92 0 0 0
3447 1 5.4225 21.69 30.727500000000003 0 0 0
3448 1 3.615 23.497500000000002 30.727500000000003 0 0 0
3449 1 7.23 21.69 28.92 0 0 0
3450 1 9.037500000000001 23.497500000000002 28.92 0 0 0
3451 1 9.037500000000001 21.69 30.727500000000003 0 0 0
3452 1 7.23 23.497500000000002 30.727500000000003 0 0 0
3453 1 10.845 21.69 28.92 0 0 0
3454 1 12.6525 23.497500000000002 28.92 0 0 0
3455 1 12.6525 21.69 30.727500000000003 0 0 0
3456 1 10.845 23.497500000000002 30.727500000000003 0 0 0
3457 1 14.46 21.69 28.92 0 0 0
3458 1 16.267500000000002 23.497500000000002 28.92 0 0 0
3459 1 16.267500000000002 21.69 30.727500000000003 0 0 0
3460 1 14.46 23.497500000000002 30.727500000000003 0 0 0
3461 1 18.075000000000003 21.69 28.92 0 0 0
3462 1 19.8825 23.497500000000002 28.92 0 0 0
3463 1 19.8825 21.69 30.727500000000003 0 0 0
3464 1 18.075000000000003 23.497500000000002 30.727500000000003 0 0 0
3465 1 21.69 21.69 28.92 0 0 0
3466 1 23.497500000000002 23.497500000000002 28.92 0 0 0
3467 1 23.497500000000002 21.69 30.727500000000003 0 0 0
3468 1 21.69 23.497500000000002 30.727500000000003 0 0 0
3469 1 25.305 21.69 28.92 0 0 0
3470 1 27.1125 23.497500000000002 28.92 0 0 0
3471 1 27.1125 21.69 30.727500000000003 0 0 0
3472 1 25.305 23.497500000000002 30.727500000000003 0 0 0
3473 1 28.92 21.69 28.92 0 0 0
3474 1 30.727500000000003 23.497500000000002 28.92 0 0 0
3475 1 30.727500000000003 21.69 30.727500000000003 0 0 0
3476 1 28.92 23.497500000000002 30.727500000000003 0 0 0
3477 1 32.535000000000004 21.69 28.92 0 0 0
3478 1 34.3425 23.497500000000002 28.92 0 0 0
3479 1 34.3425 21.69 30.727500000000003 0 0 0
3480 1 32.535000000000004 23.497500000000002 30.727500000000003 0 0 0
3481 1 0 25.305 28.92 0 0 0
3482 1 1.8075 27.1125 28.92 0 0 0
3483 1 1.8075 25.305 30.727500000000003 0 0 0
3484 1 0 27.1125 30.727500000000003 0 0 0
3485 1 3.615 25.305 28.92 0 0 0
3486 1 5.4225 27.1125 28.92 0 0 0
3487 1 5.4225 25.305 30.727500000000003 0 0 0
3488 1 3.615 27.1125 30.727500000000003 0 0 0
3489 1 7.23 25.305 28.92 0 0 0
3490 1 9.037500000000001 27.1125 28.92 0 0 0
3491 1 9.037500000000001 25.305 30.727500000000003 0 0 0
3492 1 7.23 27.1125 30.727500000000003 0 0 0
3493 1 10.845 25.305 28.92 0 0 0
3494 1 12.6525 27.1125 28.92 0 0 0
3495 1 12.6525 25.305 30.727500000000003 0 0 0
3496 1 10.845 27.1125 30.727500000000003 0 0 0
3497 1 14.46 25.305 28.92 0 0 0
3498 1 16.267500000000002 27.1125 28.92 0 0 0
3499 1 16.267500000000002 25.305 30.727500000000003 0 0 0
3500 1 14.46 27.1125 30.727500000000003 0 0 0
3501 1 18.075000000000003 25.305 28.92 0 0 0
3502 1 19.8825 27.1125 28.92 0 0 0
3503 1 19.8825 25.305 30.727500000000003 0 0 0
3504 1 18.075000000000003 27.1125 30.727500000000003 0 0 0
3505 1 21.69 25.305 28.92 0 0 0
3506 1 23.497500000000002 27.1125 28.92 0 0 0
3507 1 23.497500000000002 25.305 30.727500000000003 0 0 0
3508 1 21.69 27.1125 30.727500000000003 0 0 0
3509 1 25.305 25.305 28.92 0 0 0
3510 1 27.1125 27.1125 28.92 0 0 0
3511 1 27.1125 25.305 30.727500000000003 0 0 0
3512 1 25.305 27.1125 30.727500000000003 0 0 0
3513 1 28.92 25.305 28.92 0 0 0
3514 1 30.727500000000003 27.1125 28.92 0 0 0
3515 1 30.727500000000003 25.305 30.727500000000003 0 0 0
3516 1 28.92 27.1125 30.727500000000003 0 0 0
3517 1 32.535000000000004 25.305 28.92 0 0 0
3518 1 34.3425 27.1125 28.92 0 0 0
3519 1 34.3425 25.305 30.727500000000003 0 0 0
3520 1 32.535000000000004 27.1125 30.727500000000003 0 0 0
3521 1 0 28.92 28.92 0 0 0
3522 1 1.8075 30.727500000000003 28.92 0 0 0
3523 1 1.8075 28.92 30.727500000000003 0 0 0
3524 1 0 30.727500000000003 30.727500000000003 0 0 0
3525 1 3.615 28.92 28.92 0 0 0
3526 1 5.4225 30.727500000000003 28.92 0 0 0
3527 1 5.4225 28.92 30.727500000000003 0 0 0
3528 1 3.615 30.727500000000003 30.727500000000003 0 0 0
3529 1 7.23 28.92 28.92 0 0 0
3530 1 9.037500000000001 30.727500000000003 28.92 0 0 0
3531 1 9.037500000000001 28.92 30.727500000000003 0 0 0
3532 1 7.23 30.727500000000003 30.727500000000003 0 0 0
3533 1 10.845 28.92 28.92 0 0 0
3534 1 12.6525 30.727500000000003 28.92 0 0 0
3535 1 12.6525 28.92 30.727500000000003 0 0 0
3536 1 10.845 30.727500000000003 30.727500000000003 0 0 0
3537 1 14.46 28.92 28.92 0 0 0
3538 1 16.267500000000002 30.727500000000003 28.92 0 0 0
3539 1 16.267500000000002 28.92 30.727500000000003 0 0 0
3540 1 14.46 30.727500000000003 30.727500000000003 0 0 0
3541 1 18.075000000000003 28.92 28.92 0 0 0
3542 1 19.8825 30.727500000000003 28.92 0 0 0
3543 1 19.8825 28.92 30.727500000000003 0 0 0
3544 1 18.075000000000003 30.727500000000003 30.727500000000003 0 0 0
3545 1 21.69 28.92 28.92 0 0 0
3546 1 23.497500000000002 30.727500000000003 28.92 0 0 0
3547 1 23.497500000000002 28.92 30.727500000000003 0 0 0
3548 1 21.69 30.727500000000003 30.727500000000003 0 0 0
3549 1 25.305 28.92 28.92 0 0 0
3550 1 27.1125 30.727500000000003 28.92 0 0 0
3551 1 27.1125 28.92 30.727500000000003 0 0 0
3552 1 25.305 30.727500000000003 30.727500000000003 0 0 0
3553 1 28.92 28.92 28.92 0 0 0
3554 1 30.727500000000003 30.727500000000003 28.92 0 0 0
3555 1 30.727500000000003 28.92 30.727500000000003 0 0 0
3556 1 28.92 30.727500000000003 30.727500000000003 0 0 0
3557 1 32.535000000000004 28.92 28.92 0 0 0
3558 1 34.3425 30.727500000000003 28.92 0 0 0
3559 1 34.3425 28.92 30.727500000000003 0 0 0
3560 1 32.535000000000004 30.727500000000003 30.727500000000003 0 0 0
3561 1 0 32.535000000000004 28.92 0 0 0
3562 1 1.8075 34.3425 28.92 0 0 0
3563 1 1.8075 32.535000000000004 30.727500000000003 0 0 0
3564 1 0 34.3425 30.727500000000003 0 0 0
3565 1 3.615 32.535000000000004 28.92 0 0 0
3566 1 5.4225 34.3425 28.92 0 0 0
3567 1 5.4225 32.535000000000004 30.727500000000003 0 0 0
3568 1 3.615 34.3425 30.727500000000003 0 0 0
3569 1 7.23 32.535000000000004 28.92 0 0 0
3570 1 9.037500000000001 34.3425 28.92 0 0 0
3571 1 9.037500000000001 32.535000000000004 30.727500000000003 0 0 0
3572 1 7.23 34.3425 30.727500000000003 0 0 0
3573 1 10.845 32.535000000000004 28.92 0 0 0
3574 1 12.6525 34.3425 28.92 0 0 0
3575 1 12.6525 32.535000000000004 30.727500000000003 0 0 0
3576 1 10.845 34.3425 30.727500000000003 0 0 0
3577 1 14.46 32.535000000000004 28.92 0 0 0
3578 1 16.267500000000002 34.3425 28.92 0 0 0
3579 1 16.267500000000002 32.535000000000004 30.727500000000003 0 0 0
3580 1 14.46 34.3425 30.727500000000003 0 0 0
3581 1 18.075000000000003 32.535000000000004 28.92 0 0 0
3582 1 19.8825 34.3425 28.92 0 0 0
3583 1 19.8825 32.535000000000004 30.727500000000003 0 0 0
3584 1 18.075000000000003 34.3425 30.727500000000003 0 0 0
3585 1 21.69 32.535000000000004 28.92 0 0 0
3586 1 23.497500000000002 34.3425 28.92 0 0 0
3587 1 23.497500000000002 32.535000000000004 30.727500000000003 0 0 0
3588 1 21.69 34.3425 30.727500000000003 0 0 0
3589 1 25.305 32.535000000000004 28.92 0 0 0
3590 1 27.1125 34.3425 28.92 0 0 0
3591 1 27.1125 32.535000000000004 30.727500000000003 0 0 0
3592 1 25.305 34.3425 30.727500000000003 0 0 0
3593 1 28.92 32.535000000000004 28.92 0 0 0
3594 1 30.727500000000003 34.3425 28.92 0 0 0
3595 1 30.727500000000003 32.535000000000004 30.727500000000003 0 0 0
3596 1 28.92 34.3425 30.727500000000003 0 0 0
3597 1 32.535000000000004 32.535000000000004 28.92 0 0 0
3598 1 34.3425 34.3425 28.92 0 0 0
3599 1 34.3425 32.535000000000004 30.727500000000003 0 0 0
3600 1 32.535000000000004 34.3425 30.727500000000003 0 0 0
3601 1 0 0 32.535000000000004 0 0 0
3602 1 1.8075 1.8075 32.535000000000004 0 0 0
3603 1 1.8075 0 34.3425 0 0 0
3604 1 0 1.8075 34.3425 0 0 0
3605 1 3.615 0 32.535000000000004 0 0 0
3606 1 5.4225 1.8075 32.535000000000004 0 0 0
3607 1 5.4225 0 34.3425 0 0 0
3608 1 3.615 1.8075 34.3425 0 0 0
3609 1 7.23 0 32.535000000000004 0 0 0
3610 1 9.037500000000001 1.8075 32.535000000000004 0 0 0
3611 1 9.037500000000001 0 34.3425 0 0 0
3612 1 7.23 1.8075 34.3425 0 0 0
3613 1 10.845 0 32.535000000000004 0 0 0
3614 1 12.6525 1.8075 32.535000000000004 0 0 0
3615 1 12.6525 0 34.3425 0 0 0
3616 1 10.845 1.8075 34.3425 0 0 0
3617 1 14.46 0 32.535000000000004 0 0 0
3618 1 16.267500000000002 1.8075 32.535000000000004 0 0 0
3619 1 16.267500000000002 0 34.3425 0 0 0
3620 1 14.46 1.8075 34.3425 0 0 0
3621 1 18.075000000000003 0 32.535000000000004 0 0 0
3622 1 19.8825 1.8075 32.535000000000004 0 0 0
3623 1 19.8825 0 34.3425 0 0 0
3624 1 18.075000000000003 1.8075 34.3425 0 0 0
3625 1 21.69 0 32.535000000000004 0 0 0
3626 1 23.497500000000002 1.8075 32.535000000000004 0 0 0
3627 1 23.497500000000002 0 34.3425 0 0 0
3628 1 21.69 1.8075 34.3425 0 0 0
3629 1 25.305 0 32.535000000000004 0 0 0
3630 1 27.1125 1.8075 32.535000000000004 0 0 0
3631 1 27.1125 0 34.3425 0 0 0
3632 1 25.305 1.8075 34.3425 0 0 0
3633 1 28.92 0 32.535000000000004 0 0 0
3634 1 30.727500000000003 1.8075 32.535000000000004 0 0 0
3635 1 30.727500000000003 0 34.3425 0 0 0
3636 1 28.92 1.8075 34.3425 0 0 0
3637 1 32.535000000000004 0 32.535000000000004 0 0 0
3638 1 34.3425 1.8075 32.535000000000004 0 0 0
3639 1 34.3425 0 34.3425 0 0 0
3640 1 32.535000000000004 1.8075 34.3425 0 0 0
3641 1 0 3.615 32.535000000000004 0 0 0
3642 1 1.8075 5.4225 32.535000000000004 0 0 0
3643 1 1.8075 3.615 34.3425 0 0 0
3644 1 0 5.4225 34.3425 0 0 0
3645 1 3.615 3.615 32.535000000000004 0 0 0
3646 1 5.4225 5.4225 32.535000000000004 0 0 0
3647 1 5.4225 3.615 34.3425 0 0 0
3648 1 3.615 5.4225 34.3425 0 0 0
3649 1 7.23 3.615 32.535000000000004 0 0 0
3650 1 9.037500000000001 5.4225 32.535000000000004 0 0 0
3651 1 9.037500000000001 3.615 34.3425 0 0 0
3652 1 7.23 5.4225 34.3425 0 0 0
3653 1 10.845 3.615 32.535000000000004 0 0 0
3654 1 12.6525 5.4225 32.535000000000004 0 0 0
3655 1 12.6525 3.615 34.3425 0 0 0
3656 1 10.845 5.4225 34.3425 0 0 0
3657 1 14.46 3.615 32.535000000000004 0 0 0
3658 1 16.267500000000002 5.4225 32.535000000000004 0 0 0
3659 1 16.267500000000002 3.615 34.3425 0 0 0
3660 1 14.46 5.4225 34.3425 0 0 0
3661 1 18.075000000000003 3.615 32.535000000000004 0 0 0
3662 1 19.8825 5.4225 32.535000000000004 0 0 0
3663 1 19.8825 3.615 34.3425 0 0 0
3664 1 18.075000000000003 5.4225 34.3425 0 0 0
3665 1 21.69 3.615 32.535000000000004 0 0 0
3666 1 23.497500000000002 5.4225 32.535000000000004 0 0 0
3667 1 23.497500000000002 3.615 34.3425 0 0 0
3668 1 21.69 5.4225 34.3425 0 0 0
3669 1 25.305 3.615 32.535000000000004 0 0 0
3670 1 27.1125 5.4225 32.535000000000004 0 0 0
3671 1 27.1125 3.615 34.3425 0 0 0
3672 1 25.305 5.4225 34.3425 0 0 0
3673 1 28.92 3.615 32.535000000000004 0 0 0
3674 1 30.727500000000003 5.4225 32.535000000000004 0 0 0
3675 1 30.727500000000003 3.615 34.3425 0 0 0
3676 1 28.92 5.4225 34.3425 0 0 0
3677 1 32.535000000000004 3.615 32.535000000000004 0 0 0
3678 1 34.3425 5.4225 32.535000000000004 0 0 0
3679 1 34.3425 3.615 34.3425 0 0 0
3680 1 32.535000000000004 5.4225 34.3425 0 0 0
3681 1 0 7.23 32.535000000000004 0 0 0
3682 1 1.8075 9.037500000000001 32.535000000000004 0 0 0
3683 1 1.8075 7.23 34.3425 0 0 0
3684 1 0 9.037500000000001 34.3425 0 0 0
3685 1 3.615 7.23 32.535000000000004 0 0 0
3686 1 5.4225 9.037500000000001 32.535000000000004 0 0 0
3687 1 5.4225 7.23 34.3425 0 0 0
3688 1 3.615 9.037500000000001 34.3425 0 0 0
3689 1 7.23 7.23 32.535000000000004 0 0 0
3690 1 9.037500000000001 9.037500000000001 32.535000000000004 0 0 0
3691 1 9.037500000000001 7.23 34.3425 0 0 0
3692 1 7.23 9.037500000000001 34.3425 0 0 0
3693 1 10.845 7.23 32.535000000000004 0 0 0
3694 1 12.6525 9.037500000000001 32.535000000000004 0 0 0
3695 1 12.6525 7.23 34.3425 0 0 0
3696 1 10.845 9.037500000000001 34.3425 0 0 0
3697 1 14.46 7.23 32.535000000000004 0 0 0
3698 1 16.267500000000002 9.037500000000001 32.535000000000004 0 0 0
3699 1 16.267500000000002 7.23 34.3425 0 0 0
3700 1 14.46 9.037500000000001 34.3425 0 0 0
3701 1 18.075000000000003 7.23 32.535000000000004 0 0 0
3702 1 19.8825 9.037500000000001 32.535000000000004 0 0 0
3703 1 19.8825 7.23 34.3425 0 0 0
3704 1 18.075000000000003 9.037500000000001 34.3425 0 0 0
3705 1 21.69 7.23 32.535000000000004 0 0 0
3706 1 23.497500000000002 9.037500000000001 32.535000000000004 0 0 0
3707 1 23.497500000000002 7.23 34.3425 0 0 0
3708 1 21.69 9.037500000000001 34.3425 0 0 0
3709 1 25.305 7.23 32.535000000000004 0 0 0
3710 1 27.1125 9.037500000000001 32.535000000000004 0 0 0
3711 1 27.1125 7.23 34.3425 0 0 0
3712 1 25.305 9.037500000000001 34.3425 0 0 0
3713 1 28.92 7.23 32.535000000000004 0 0 0
3714 1 30.727500000000003 9.037500000000001 32.535000000000004 0 0 0
3715 1 30.727500000000003 7.23 34.3425 0 0 0
3716 1 28.92 9.037500000000001 34.3425 0 0 0
3717 1 32.535000000000004 7.23 32.535000000000004 0 0 0
3718 1 34.3425 9.037500000000001 32.535000000000004 0 0 0
3719 1 34.3425 7.23 34.3425 0 0 0
3720 1 32.535000000000004 9.037500000000001 34.3425 0 0 0
3721 1 0 10.845 32.535000000000004 0 0 0
3722 1 1.8075 12.6525 32.535000000000004 0 0 0
3723 1 1.8075 10.845 34.3425 0 0 0
3724 1 0 12.6525 34.3425 0 0 0
3725 1 3.615 10.845 32.535000000000004 0 0 0
3726 1 5.4225 12.6525 32.535000000000004 0 0 0
3727 1 5.4225 10.845 34.3425 0 0 0
3728 1 3.615 12.6525 34.3425 0 0 0
3729 1 7.23 10.845 32.535000000000004 0 0 0
3730 1 9.037500000000001 12.6525 32.535000000000004 0 0 0
3731 1 9.037500000000001 10.845 34.3425 0 0 0
3732 1 7.23 12.6525 34.3425 0 0 0
3733 1 10.845 10.845 32.535000000000004 0 0 0
3734 1 12.6525 12.6525 32.535000000000004 0 0 0
3735 1 12.6525 10.845 34.3425 0 0 0
3736 1 10.845 12.6525 34.3425 0 0 0
3737 1 14.46 10.845 32.535000000000004 0 0 0
3738 1 16.267500000000002 12.6525 32.535000000000004 0 0 0
3739 1 16.267500000000002 10.845 34.3425 0 0 0
3740 1 14.46 12.6525 34.3425 0 0 0
3741 1 18.075000000000003 10.845 32.535000000000004 0 0 0
3742 1 19.8825 12.6525 32.535000000000004 0 0 0
3743 1 19.8825 10.845 34.3425 0 0 0
3744 1 18.075000000000003 12.6525 34.3425 0 0 0
3745 1 21.69 10.845 32.535000000000004 0 0 0
3746 1 23.497500000000002 12.6525 32.535000000000004 0 0 0
3747 1 23.497500000000002 10.845 34.3425 0 0 0
3748 1 21.69 12.6525 34.3425 0 0 0
3749 1 25.305 10.845 32.535000000000004 0 0 0
3750 1 27.1125 12.6525 32.535000000000004 0 0 0
3751 1 27.1125 10.845 34.3425 0 0 0
3752 1 25.305 12.6525 34.3425 0 0 0
3753 1 28.92 10.845 32.535000000000004 0 0 0
3754 1 30.727500000000003 12.6525 32.535000000000004 0 0 0
3755 1 30.727500000000003 10.845 34.3425 0 0 0
3756 1 28.92 12.6525 34.3425 0 0 0
3757 1 32.535000000000004 10.845 32.535000000000004 0 0 0
3758 1 34.3425 12.6525 32.535000000000004 0 0 0
3759 1 34.3425 10.845 34.3425 0 0 0
3760 1 32.535000000000004 12.6525 34.3425 0 0 0
3761 1 0 14.46 32.535000000000004 0 0 0
3762 1 1.8075 16.267500000000002 32.535000000000004 0 0 0
3763 1 1.8075 14.46 34.3425 0 0 0
3764 1 0 16.267500000000002 34.3425 0 0 0
3765 1 3.615 14.46 32.535000000000004 0 0 0
3766 1 5.4225 16.267500000000002 32.535000000000004 0 0 0
3767 1 5.4225 14.46 34.3425 0 0 0
3768 1 3.615 16.267500000000002 34.3425 0 0 0
3769 1 7.23 14.46 32.535000000000004 0 0 0
3770 1 9.037500000000001 16.267500000000002 32.535000000000004 0 0 0
3771 1 9.037500000000001 14.46 34.3425 0 0 0
3772 1 7.23 16.267500000000002 34.3425 0 0 0
3773 1 10.845 14.46 32.535000000000004 0 0 0
3774 1 12.6525 16.267500000000002 32.535000000000004 0 0 0
3775 1 12.6525 14.46 34.3425 0 0 0
3776 1 10.845 16.267500000000002 34.3425 0 0 0
3777 1 14.46 14.46 32.535000000000004 0 0 0
3778 1 16.267500000000002 16.267500000000002 32.535000000000004 0 0 0
3779 1 16.267500000000002 14.46 34.3425 0 0 0
3780 1 14.46 16.267500000000002 34.3425 0 0 0
3781 1 18.075000000000003 14.46 32.535000000000004 0 0 0
3782 1 19.8825 16.267500000000002 32.535000000000004 0 0 0
3783 1 19.8825 14.46 34.3425 0 0 0
3784 1 18.075000000000003 16.267500000000002 34.3425 0 0 0
3785 1 21.69 14.46 32.535000000000004 0 0 0
3786 1 23.497500000000002 16.267500000000002 32.535000000000004 0 0 0
3787 1 23.497500000000002 14.46 34.3425 0 0 0
3788 1 21.69 16.267500000000002 34.3425 0 0 0
3789 1 25.305 14.46 32.535000000000004 0 0 0
3790 1 27.1125 16.267500000000002 32.535000000000004 0 0 0
3791 1 27.1125 14.46 34.3425 0 0 0
3792 1 25.305 16.267500000000002 34.3425 0 0 0
3793 1 28.92 14.46 32.535000000000004 0 0 0
3794 1 30.727500000000003 16.267500000000002 32.535000000000004 0 0 0
3795 1 30.727500000000003 14.46 34.3425 0 0 0
3796 1 28.92 16.267500000000002 34.3425 0 0 0
3797 1 32.535000000000004 14.46 32.535000000000004 0 0 0
3798 1 34.3425 16.267500000000002 32.535000000000004 0 0 0
3799 1 34.3425 14.46 34.3425 0 0 0
3800 1 32.535000000000004 16.267500000000002 34.3425 0 0 0
3801 1 0 18.075000000000003 32.535000000000004 0 0 0
3802 1 1.8075 19.8825 32.535000000000004 0 0 0
3803 1 1.8075 18.075000000000003 34.3425 0 0 0
3804 1 0 19.8825 34.3425 0 0 0
3805 1 3.615 18.075000000000003 32.535000000000004 0 0 0
3806 1 5.4225 19.8825 32.535000000000004 0 0 0
3807 1 5.4225 18.075000000000003 34.3425 0 0 0
3808 1 3.615 19.8825 34.3425 0 0 0
3809 1 7.23 18.075000000000003 32.535000000000004 0 0 0
3810 1 9.037500000000001 19.8825 32.535000000000004 0 0 0
3811 1 9.037500000000001 18.075000000000003 34.3425 0 0 0
3812 1 7.23 19.8825 34.3425 0 0 0
3813 1 10.845 18.075000000000003 32.535000000000004 0 0 0
3814 1 12.6525 19.8825 32.535000000000004 0 0 0
3815 1 12.6525 18.075000000000003 34.3425 0 0 0
3816 1 10.845 19.8825 34.3425 0 0 0
3817 1 14.46 18.075000000000003 32.535000000000004 0 0 0
3818 1 16.267500000000002 19.8825 32.535000000000004 0 0 0
3819 1 16.267500000000002 18.075000000000003 34.3425 0 0 0
3820 1 14.46 19.8825 34.3425 0 0 0
3821 1 18.075000000000003 18.075000000000003 32.535000000000004 0 0 0
3822 1 19.8825 19.8825 32.535000000000004 0 0 0
3823 1 19.8825 18.075000000000003 34.3425 0 0 0
3824 1 18.075000000000003 19.8825 34.3425 0 0 0
3825 1 21.69 18.075000000000003 32.535000000000004 0 0 0
3826 1 23.497500000000002 19.8825 32.535000000000004 0 0 0
3827 1 23.497500000000002 18.075000000000003 34.3425 0 0 0
3828 1 21.69 19.8825 34.3425 0 0 0
3829 1 25.305 18.075000000000003 32.535000000000004 0 0 0
3830 1 27.1125 19.8825 32.535000000000004 0 0 0
3831 1 27.1125 18.075000000000003 34.3425 0 0 0
3832 1 25.305 19.8825 34.3425 0 0 0
3833 1 28.92 18.075000000000003 32.535000000000004 0 0 0
3834 1 30.727500000000003 19.8825 32.535000000000004 0 0 0
3835 1 30.727500000000003 18.075000000000003 34.3425 0 0 0
3836 1 28.92 19.8825 34.3425 0 0 0
3837 1 32.535000000000004 18.075000000000003 32.535000000000004 0 0 0
3838 1 34.3425 19.8825 32.535000000000004 0 0 0
3839 1 34.3425 18.075000000000003 34.3425 0 0 0
3840 1 32.535000000000004 19.8825 34.3425 0 0 0
3841 1 0 21.69 32.535000000000004 0 0 0
3842 1 1.8075 23.497500000000002 32.535000000000004 0 0 0
3843 1 1.8075 21.69 34.3425 0 0 0
3844 1 0 23.497500000000002 34.3425 0 0 0
3845 1 3.615 21.69 32.535000000000004 0 0 0
3846 1 5.4225 23.497500000000002 32.535000000000004 0 0 0
3847 1 5.4225 21.69 34.3425 0 0 0
3848 1 3.615 23.497500000000002 34.3425 0 0 0
3849 1 7.23 21.69 32.535000000000004 0 0 0
3850 1 9.037500000000001 23.497500000000002 32.535000000000004 0 0 0
3851 1 9.037500000000001 21.69 34.3425 0 0 0
3852 1 7.23 23.497500000000002 34.3425 0 0 0
3853 1 10.845 21.69 32.535000000000004 0 0 0
3854 1 12.6525 23.497500000000002 32.535000000000004 0 0 0
3855 1 12.6525 21.69 34.3425 0 0 0
3856 1 10.845 23.497500000000002 34.3425 0 0 0
3857 1 14.46 21.69 32.535000000000004 0 0 0
3858 1 16.267500000000002 23.497500000000002 32.535000000000004 0 0 0
3859 1 16.267500000000002 21.69 34.3425 0 0 0
3860 1 14.46 23.497500000000002 34.3425 0 0 0
3861 1 18.075000000000003 21.69 32.535000000000004 0 0 0
3862 1 19.8825 23.497500000000002 32.535000000000004 0 0 0
3863 1 19.8825 21.69 34.3425 0 0 0
3864 1 18.075000000000003 23.497500000000002 34.3425 0 0 0
3865 1 21.69 21.69 32.535000000000004 0 0 0
3866 1 23.497500000000002 23.497500000000002 32.535000000000004 0 0 0
3867 1 23.497500000000002 21.69 34.3425 0 0 0
3868 1 21.69 23.497500000000002 34.3425 0 0 0
3869 1 25.305 21.69 32.535000000000004 0 0 0
3870 1 27.1125 23.497500000000002 32.535000000000004 0 0 0
3871 1 27.1125 21.69 34.3425 0 0 0
3872 1 25.305 23.497500000000002 34.3425 0 0 0
3873 1 28.92 21.69 32.535000000000004 0 0 0
3874 1 30.727500000000003 23.497500000000002 32.535000000000004 0 0 0
3875 1 30.727500000000003 21.69 34.3425 0 0 0
3876 1 28.92 23.497500000000002 34.3425 0 0 0
3877 1 32.535000000000004 21.69 32.535000000000004 0 0 0
3878 1 34.3425 23.497500000000002 32.535000000000004 0 0 0
3879 1 34.3425 21.69 34.3425 0 0 0
3880 1 32.535000000000004 23.497500000000002 34.3425 0 0 0
3881 1 0 25.305 32.535000000000004 0 0 0
3882 1 1.8075 27.1125 32.535000000000004 0 0 0
3883 1 1.8075 25.305 34.3425 0 0 0
3884 1 0 27.1125 34.3425 0 0 0
3885 1 3.615 25.305 32.535000000000004 0 0 0
3886 1 5.4225 27.1125 32.535000000000004 0 0 0
3887 1 5.4225 25.305 34.3425 0 0 0
3888 1 3.615 27.1125 34.3425 0 0 0
3889 1 7.23 25.305 32.535000000000004 0 0 0
3890 1 9.037500000000001 27.1125 32.535000000000004 0 0 0
3891 1 9.037500000000001 25.305 34.3425 0 0 0
3892 1 7.23 27.1125 34.3425 0 0 0
3893 1 10.845 25.305 32.535000000000004 0 0 0
3894 1 12.6525 27.1125 32.535000000000004 0 0 0
3895 1 12.6525 25.305 34.3425 0 0 0
3896 1 10.845 27.1125 34.3425 0 0 0
3897 1 14.46 25.305 32.535000000000004 0 0 0
3898 1 16.267500000000002 27.1125 32.535000000000004 0 0 0
3899 1 16.267500000000002 25.305 34.3425 0 0 0
3900 1 14.46 27.1125 34.3425 0 0 0
3901 1 18.075000000000003 25.305 32.535000000000004 0 0 0
3902 1 19.8825 27.1125 32.535000000000004 0 0 0
3903 1 19.8825 25.305 34.3425 0 0 0
3904 1 18.075000000000003 27.1125 34.3425 0 0 0
3905 1 21.69 25.305 32.535000000000004 0 0 0
3906 1 23.497500000000002 27.1125 32.535000000000004 0 0 0
3907 1 23.497500000000002 25.305 34.3425 0 0 0
3908 1 21.69 27.1125 34.3425 0 0 0
3909 1 25.305 25.305 32.535000000000004 0 0 0
3910 1 27.1125 27.1125 32.535000000000004 0 0 0
3911 1 27.1125 25.305 34.3425 0 0 0
3912 1 25.305 27.1125 34.3425 0 0 0
3913 1 28.92 25.305 32.535000000000004 0 0 0
3914 1 30.727500000000003 27.1125 32.535000000000004 0 0 0
3915 1 30.727500000000003 25.305 34.3425 0 0 0
3916 1 28.92 27.1125 34.3425 0 0 0
3917 1 32.535000000000004 25.305 32.535000000000004 0 0 0
3918 1 34.3425 27.1125 32.535000000000004 0 0 0
3919 1 34.3425 25.305 34.3425 0 0 0
3920 1 32.535000000000004 27.1125 34.3425 0 0 0
3921 1 0 28.92 32.535000000000004 0 0 0
3922 1 1.8075 30.727500000000003 32.535000000000004 0 0 0
3923 1 1.8075 28.92 34.3425 0 0 0
3924 1 0 30.727500000000003 34.3425 0 0 0
3925 1 3.615 28.92 32.535000000000004 0 0 0
3926 1 5.4225 30.727500000000003 32.535000000000004 0 0 0
3927 1 5.4225 28.92 34.3425 0 0 0
3928 1 3.615 30.727500000000003 34.3425 0 0 0
3929 1 7.23 28.92 32.535000000000004 0 0 0
3930 1 9.037500000000001 30.727500000000003 32.535000000000004 0 0 0
3931 1 9.037500000000001 28.92 34.3425 0 0 0
3932 1 7.23 30.727500000000003 34.3425 0 0 0
3933 1 10.845 28.92 32.535000000000004 0 0 0
3934 1 12.6525 30.727500000000003 32.535000000000004 0 0 0
3935 1 12.6525 28.92 34.3425 0 0 0
3936 1 10.845 30.727500000000003 34.3425 0 0 0
3937 1 14.46 28.92 32.535000000000004 0 0 0
3938 1 16.267500000000002 30.727500000000003 32.535000000000004 0 0 0
3939 1 16.267500000000002 28.92 34.3425 0 0 0
3940 1 14.46 30.727500000000003 34.3425 0 0 0
3941 1 18.075000000000003 28.92 32.535000000000004 0 0 0
3942 1 19.8825 30.727500000000003 32.535000000000004 0 0 0
3943 1 19.8825 28.92 34.3425 0 0 0
3944 1 18.075000000000003 30.727500000000003 34.3425 0 0 0
3945 1 21.69 28.92 32.535000000000004 0 0 0
3946 1 23.497500000000002 30.727500000000003 32.535000000000004 0 0 0
3947 1 23.497500000000002 28.92 34.3425 0 0 0
3948 1 21.69 30.727500000000003 34.3425 0 0 0
3949 1 25.305 28.92 32.535000000000004 0 0 0
3950 1 27.1125 30.727500000000003 32.535000000000004 0 0 0
3951 1 27.1125 28.92 34.3425 0 0 0
3952 1 25.305 30.727500000000003 34.3425 0 0 0
3953 1 28.92 28.92 32.535000000000004 0 0 0
3954 1 30.727500000000003 30.727500000000003 32.535000000000004 0 0 0
3955 1 30.727500000000003 28.92 34.3425 0 0 0
3956 1 28.92 30.727500000000003 34.3425 0 0 0
3957 1 32.535000000000004 28.92 32.535000000000004 0 0 0
3958 1 34.3425 30.727500000000003 32.535000000000004 0 0 0
3959 1 34.3425 28.92 34.3425 0 0 0
3960 1 32.535000000000004 30.727500000000003 34.3425 0 0 0
3961 1 0 32.535000000000004 32.535000000000004 0 0 0
3962 1 1.8075 34.3425 32.535000000000004 0 0 0
3963 1 1.8075 32.535000000000004 34.3425 0 0 0
3964 1 0 34.3425 34.3425 0 0 0
3965 1 3.615 32.535000000000004 32.535000000000004 0 0 0
3966 1 5.4225 34.3425 32.535000000000004 0 0 0
3967 1 5.4225 32.535000000000004 34.3425 0 0 0
3968 1 3.615 34.3425 34.3425 0 0 0
3969 1 7.23 32.535000000000004 32.535000000000004 0 0 0
3970 1 9.037500000000001 34.3425 32.535000000000004 0 0 0
3971 1 9.037500000000001 32.535000000000004 34.3425 0 0 0
3972 1 7.23 34.3425 34.3425 0 0 0
3973 1 10.845 32.535000000000004 32.535000000000004 0 0 0
3974 1 12.6525 34.3425 32.535000000000004 0 0 0
3975 1 12.6525 32.535000000000004 34.3425 0 0 0
3976 1 10.845 34.3425 34.3425 0 0 0
3977 1 14.46 32.535000000000004 32.535000000000004 0 0 0
3978 1 16.267500000000002 34.3425 32.535000000000004 0 0 0
3979 1 16.267500000000002 32.535000000000004 34.3425 0 0 0
3980 1 14.46 34.3425 34.3425 0 0 0
3981 1 18.075000000000003 32.535000000000004 32.535000000000004 0 0 0
3982 1 19.8825 34.3425 32.535000000000004 0 0 0
3983 1 19.8825 32.535000000000004 34.3425 0 0 0
3984 1 18.075000000000003 34.3425 34.3425 0 0 0
3985 1 21.69 32.535000000000004 32.535000000000004 0 0 0
3986 1 23.497500000000002 34.3425 32.535000000000004 0 0 0
3987 1 23.497500000000002 32.535000000000004 34.3425 0 0 0
3988 1 21.69 34.3425 34.3425 0 0 0
3989 1 25.305 32.535000000000004 32.535000000000004 0 0 0
3990 1 27.1125 34.3425 32.535000000000004 0 0 0
3991 1 27.1125 32.535000000000004 34.3425 0 0 0
3992 1 25.305 34.3425 34.3425 0 0 0
3993 1 28.92 32.535000000000004 32.535000000000004 0 0 0
3994 1 30.727500000000003 34.3425 32.535000000000004 0 0 0
3995 1 30.727500000000003 32.535000000000004 34.3425 0 0 0
3996 1 28.92 34.3425 34.3425 0 0 0
3997 1 32.535000000000004 32.535000000000004 32.535000000000004 0 0 0
3998 1 34.3425 34.3425 32.535000000000004 0 0 0
3999 1 34.3425 32.535000000000004 34.3425 0 0 0
4000 1 32.535000000000004 34.3425 34.3425 0 0 0

Velocities

1 1.268160976478352 0.26720240300348913 0.11216320669538268
2 -2.1165831966742195 1.0626567107887306 -1.488328722327826
3 -0.8061456472009408 -3.015788563537512 1.6597560712452617
4 0.2692797370225611 1.6992636729219615 -1.444232238998456
5 -0.19192899905365243 1.3530468026532656 0.0012914005703415937
6 3.0511791150556182 0.8026870512041941 3.0868299164393758
7 -2.0623093685032123 -0.2901037261180401 -2.8187962418136485
8 -1.177591643869569 -3.433219441821528 -3.4273835541320246
9 -0.9033378895290805 -3.2395496175934135 -1.1497503151171422
10 0.8620670944539609 -1.1380618723843612 2.1998549485836834
11 -2.2531581180810085 3.321837841527345 1.584193771639154
12 -3.2173710853545474 -0.8363305721858689 0.5214382812232681
13 -2.6106523033510687 2.088549038680321 1.2091825682625388
14 -1.2688908429331418 -1.5024649778364767 2.5003206960829267
15 2.481098892433006 -2.280623190330447 -2.7940061766278914
16 0.22676552086604862 -0.0046064951698214255 -0.5150358569950236
17 -3.2183334428241217 -3.1692636162440713 -3.293390611731536
18 1.8870911356102833 0.8075632056221675 1.9919035368634506
19 -2.3367757633093036 2.8630826178016724 0.9499321356779564
20 1.5529070369830256 -3.1332543833080306 -0.18750185351096257
21 -0.31439334898704996 -1.4560538871510862 0.49191633563918075
22 -0.49526964036261373 -3.2546191530289037 1.642633141516389
23 3.1537876724679768 2.0892975697291627 -0.05166504092777582
24 -1.1375605309331547 -1.9386382526962915 0.7621276040089237
25 0.9633832089235951 -0.8114264716135615 -3.0783162858278987
26 -2.8871530623825032 -1.2670062585853619 1.2120562857852397
27 -1.4152517536570097 2.380501065677195 1.267428566222318
28 1.8522660982070802 -3.1576646528090357 -2.1293374181548574
29 1.297568886675889 3.1559314718018188 2.239740630549663
30 -3.2028352490634706 1.2428133981079539 2.05726011571783
31 2.6399382232197817 2.860787030845579 -3.028475467694524
32 -2.6177639928558984 0.21435958116308526 -2.166970852090229
33 -1.4234481731536144 3.037368057004534 2.7073165115669044
34 0.34541954199067043 1.05063816738614 -2.783557957056557
35 2.812380017829236 1.3148546194940787 1.7307850831512273
36 -3.22799108150279 0.6117104762887647 -2.370293439045624
37 0.16184279533592966 2.3104523391440224 0.47824222465771177
38 -1.9328052791579662 3.1839212084766992 2.055340724685946
39 -1.9364489554894406 -2.689711106314489 0.8456365764303838
40 -0.4043254318299062 2.689709477804734 0.684151566666966
41 -1.5667308986669162 3.2897571461885127 2.218896147843393
42 -0.5801279429005548 3.1177161141770466 -3.340963403474757
43 -1.787805235831457 -2.809029761830667 2.461290642070293
44 -2.9507983853301925 1.755244358008486 -1.7926663909576688
45 -1.4087363643248185 1.153377995206874 0.7093143150294038
46 -0.8193920570003829 2.7350495639953483 1.4374880831338905
47 1.7916192597734815 1.8151838773339857 2.1086862497021923
48 1.870912906154916 -1.192464782747622 1.3831309802874994
49 1.7447822275025329 -3.3352119906955644 -3.343817182126847
50 -1.3063317267406178 -0.9872920381137209 3.2106222202925903
51 2.3035994310394146 -2.6904427375027384 2.3905201426008826
52 -2.0294135191525258 -1.0659215721816726 -3.382106887536491
53 -1.2158945075802803 3.356770684829965 0.4406109080389706
54 2.3024678751562564 -0.9463890451269044 -1.403222004085449
55 -3.0033581699554155 -2.6875876987733234 1.9302247531094434
56 -0.8664232862010512 1.2414903717027914 0.5832687447710693
57 -1.5317224861745489 3.4162656546761125 -3.1295795507896402
58 0.6192119178907045 0.41062501643607846 2.210870376977242
59 2.944830580466203 -1.0553796202599695 0.7788672220828105
60 -1.4427392383346294 -2.835158657562766 -0.6826780944188783
61 2.8660073779920134 2.9383153153402533 -1.103038990867196
62 -3.021016220041233 -1.8761431289753012 -0.8294079951004636
63 0.5473592021387609 -3.0153902308584564 1.4338289345997637
64 2.578650108554348 -2.944294067465998 -0.9348268504404433
65 0.47300272885578437 -0.07712698744987297 -1.3229622651203239
66 3.3054067505150293 -3.3888084290119673 2.473130067575908
67 2.2547008284746406 -0.965423692629065 -2.9661367901467734
68 0.08201404793377476 3.245362617510708 -3.4045686714324948
69 1.907649596877324 0.2983980438773311 -1.556240615534321
70 -0.2850966349737021 -0.43619908601947616 -1.3934219992279975
71 2.5291205778607826 2.0181248638903018 1.0305418474235764
72 -0.09774446784160064 -0.5288615566177077 -1.6130587976406103
73 -0.17106594712603687 -0.9575676003594171 -2.4221790114025405
74 0.129791858447271 3.4453049874220634 0.4851727627392441
75 -3.1032277930009773 0.5348448442225913 -0.07923502360907762
76 -0.8190597285251404 1.3997897738580214 -3.3499015444463227
77 0.2443578729049479 -1.9202381395288721 -1.4188717003911648
78 -3.041033985673139 0.799789098946242 2.8258776317988294
79 -0.1607210990132016 -0.10931720638943833 -2.5290230464240104
80 -3.135446101029964 -1.1433092629848491 -2.944585191362767
81 2.4231021867531926 -1.21192478208048 -0.40796755076865293
82 -3.104473816113042 0.3550478203552593 2.4200397742833863
83 2.737018547478002 1.2035410837558211 -0.5256022144552983
84 -0.868786965673251 3.0393563236696335 1.5205919842019047
85 0.5365808551991227 2.691953540166786 -3.1241191555579793
86 2.422916420417544 2.5866048882141346 -2.0185672980140428
87 1.341474711604702 0.5657523817903194 0.33091336184985526
88 -0.4768009641642814 2.637424876664664 0.8663283448548262
89 1.3270028008732582 -0.4389947077523717 0.06549485075994428
90 2.488668579761631 0.37043121817117913 -2.0179631279978567
91 -2.3456487734298817 -0.9308045344581465 -2.4611211887182565
92 3.095542699328119 -1.014635222990064 0.4202092571107382
93 -1.4735600722697526 -1.7880790898190153 -1.7678592325490696
94 0.2829065967156993 2.3426469087341975 1.75742439076751
95 1.5737657189238052 1.403389318478788 1.7820091084671683
96 -0.4731523152002942 1.6739277525517158 1.818631457646131
97 -0.9040278092574422 -0.9936215450929141 0.6411655240631257
98 2.640820780089052 -3.068193087944624 -0.17361749975578236
99 -2.2640118859660037 0.8408773104090003 1.3250003325775652
100 0.5623169355216802 -0.7661263115047325 -2.9960174259260968
101 3.089595073123266 2.8341782551284678 -0.3963781652103683
102 -2.1013959970873 0.24785464723367057 0.2075422396481615
103 2.2360902533896274 -2.3216578372274332 -0.39286922047153167
104 1.507802440230478 0.07128008581925185 1.5011076953478253
105 -1.6627516590301126 1.992980056321899 0.5847339311019489
106 2.331550756303464 3.400281248316783 -1.87202276405279
107 0.5446644188188979 0.13831782696891423 0.12959401102036294
108 0.17335720468203122 2.0534049600111097 -1.1974673744345987
109 1.6831700763796489 -0.7449648822901555 -0.29180476696941837
110 -2.3952280401166828 3.1957015585924355 -0.652744612736809
111 0.7466074402474229 3.049486942523717 -1.2317087736697918
112 0.6064444341558451 0.3693645643270127 0.8168991337189251
113 1.0547880643429133 -0.9664145645850092 1.1423916669149796
114 -2.6694450781887253 -3.3015824153989275 1.29139247186153
115 3.2127687112370023 -3.1978280287467054 1.0738416041634555
116 0.9672973378105224 2.6869974691311582 -3.3723513688872044
117 -3.3517999339418436 2.888374068077273 -3.060340441662581
118 1.6425674619790749 1.996637767529972 -0.22645405665930693
119 2.48285332290727 -0.47672810352524597 2.58512366156781
120 2.099418248020147 -1.69416686744001 -1.3057576752908497
121 1.7933601258859542 3.3911027355103545 3.0409153896784114
122 1.3711403962395432 0.8661919448182972 -2.295616509729515
123 2.6094841007905387 3.1504824043752646 0.6264225484624396
124 -2.9197135668068577 -1.775750709193485 -2.185900265410889
125 -1.2176920707269647 0.8279447726581006 -1.4903229671091345
126 0.28010468104158753 -3.2249229848354535 2.455409874085855
127 2.021701203297664 0.12860798048292277 3.0331114858798616
128 1.704314251236176 1.6692537809243597 -0.6090604744041641
129 1.3512462019757843 -1.3017163163496968 -0.8207087821922996
130 1.420236605355034 2.462346197838208 -0.3816254377069071
131 -3.297665893786295 -0.8138035446442324 -1.50555587108639
132 0.3267530562112597 -1.2452870179538786 -0.550003518393342
133 -2.659938313627811 -2.6975933314921354 -0.1375369870492252
134 2.0398759753224023 1.0810045645855606 2.3730532053169076
135 1.994063911217366 -0.6841602860427254 -2.613217720054092
136 0.5490912734915928 -1.5872848979679233 2.5970445957069317
137 1.7541285916322085 1.4936315189198452 2.848392216479721
138 -2.396842411868339 -3.1749310508815127 -1.6561019336712735
139 3.076916507018767 -2.633348057048 0.002892723592871807
140 2.281797260561892 -2.3221848557061313 -2.3297643184133214
141 3.1057348557180564 -2.7326746157708723 -1.4888016090448208
142 -1.8332482261884675 1.6288278706153483 -1.8182966312303444
143 -3.092507267819301 0.77639526066784 -2.7949117951681
144 -1.1525563373429697 2.0929089384514765 -1.641731186845982
145 2.3814018258587577 -3.0787385074959994 2.527832412273094
146 1.1833131735105504 -0.10470052799656294 -1.0642585062870855
147 -1.7836323947003159 -1.8831336061314257 -0.6663815079306881
148 -0.06544245651757752 2.5560938302705725 -2.685787113647003
149 -1.0807194998544007 -1.6686462603400083 -1.4645915049216316
150 -3.2555921665018994 0.40747462331619994 -2.292855474057619
151 0.5692793235883832 -1.4012461245782624 1.1922869165215446
152 -1.4852262387545472 2.839090532837323 -0.8841803949405868
153 0.44133006975822037 0.4947360222208697 -2.879872473348956
154 -3.421552974146025 0.14808338434164514 -1.8375905903996912
155 -2.092968770741767 -3.45054610768442 2.9536356503643915
156 1.6499101355815615 0.8322724808374448 2.0384236677439502
157 -2.5125415645569142 -3.012633223566754 -0.6740808285339761
158 2.025461161240486 1.0358808636427776 -1.6642009243758424
159 -1.5494352674450431 3.307843203613252 1.6802664497662991
160 -1.0480121368016706 1.308351157389968 3.1583690759677836
161 3.0144709033698343 -0.2095286068788275 1.869860471708106
162 1.9346568116227287 -2.5578389836237285 2.5949711078531386
163 1.5085406006173472 -1.3638672391533344 -0.364892838682672
164 1.098946965006372 0.6968502175806253 2.908216904410744
165 -0.4254610181798585 0.4198378445963576 -2.1253296245943485
166 -0.5504894772250132 2.960686628262493 1.1735757221673817
167 2.3881360335804196 -0.6281809061513841 -2.9835882874551385
168 -2.555713325155841 -1.9264438882230774 -1.9083229008248552
169 -0.5297406379326768 -1.26949953588248 0.8317715943498835
170 1.8708728414968523 -1.865831490828791 -0.5393175051504696
171 -2.998430052655635 -2.9091739238205507 1.069547147845591
172 -2.002585261168889 -0.009180421169366893 -1.2612609224372264
173 2.214202194623651 -3.396924419480958 -2.43893674751919
174 2.2314043609795995 1.9710021098916106 -2.0012746252345845
175 1.309838227361286 1.7456061651266932 2.315133209664113
176 -2.5686767299671436 1.660154601426133 -1.2834718832687904
177 2.6326250695873616 -2.399410019093326 0.8393556581617468
178 -2.157151669746968 -2.5426318161618604 2.1157691185637573
179 3.2607138123232215 -0.18623300306850032 -1.0810812797963014
180 -0.7751033490362361 -0.3407188247064614 -2.2601079722246284
181 -2.6998152523974155 -1.6009692990437618 0.9865633408479392
182 1.270874183997873 -2.576850131167186 1.4270201277223065
183 -1.1256955042657264 -3.223564785837136 -2.400157455339617
184 3.4487475104847674 -2.6658124088711634 1.1101850411885574
185 2.7694497473435153 -0.46093618606243403 -1.9075940089351386
186 -2.120663594536653 1.690454572247495 2.7567111430872155
187 0.03645467928429185 -1.193454185150471 -1.4043462573209904
188 -1.1365688790828048 0.8866454490563948 2.351910016607852
189 -0.40358057144109766 1.3671690854335592 2.0505459886657627
190 0.5268764357469292 -1.23402130146477 1.9338727285282613
191 -1.8412406839617608 -1.2070249278961451 -1.104571957111879
192 -1.1027620002716325 1.5810907983050848 -1.3335520194127695
193 -1.6589818041628288 3.0665905489184713 2.479720487906252
194 2.2886237439716437 1.6792502353817367 1.3044422258079815
195 1.077440136028496 -0.8917917895895324 2.679861305494109
196 2.5929708035613963 2.439674815709324 -0.7807988332640278
197 0.8784143096244375 -3.2185954437057953 -1.9288779363573794
198 0.037000843848379934 1.0652291699269547 0.2227651725787596
199 2.021858497042097 2.772243943161952 -3.2206883557143975
200 -1.1707838005806543 0.2549311383637112 1.4901526120895823
201 1.0741848052158984 -0.23850096860971795 -0.6193099917053687
202 2.1052207590795713 -1.0612261212311191 -0.5934119704989858
203 1.368881341857759 -2.498212682137827 1.2320715183716802
204 2.7869475968057515 2.955831837150368 2.6275551831356876
205 2.413440464908359 2.5004235367121024 2.87939745032393
206 -0.34471270759661304 1.0986170037394623 0.7950257028071106
207 0.22537182700415945 -2.6663058113228133 -0.26172549015134433
208 -2.0642491270253593 1.71189715984073 3.2656481986092056
209 -0.2491824556967349 1.0721228241594243 -1.5675641924538415
210 3.1792713377102415 1.3095819371113762 3.08197043307
211 -0.6871926751480167 3.063924350984469 -0.8068413476339367
212 -0.8137428725365754 0.791030217670634 0.9501539769639239
213 -1.6393109432970618 1.480934390039409 -2.931118670869489
214 0.3716644905221214 -0.7755981709569361 -3.013356347732894
215 2.3439241548833447 -3.1818474993004755 -0.24887446103395136
216 -0.6188414306839723 3.006347450861502 0.39682458098025136
217 -0.019656805695800885 -3.0433738443954415 1.7211404190794894
218 0.7710472297184936 -1.4332398294638198 3.2890378409267966
219 -1.6196190156142285 0.24934822558816186 -2.372704250566102
220 1.1675604119032301 -1.8745948677766955 -2.4905999242850236
221 -0.9835483501249603 -1.7993885126218838 1.93439697870409
222 0.04912754764784424 -2.742394278613722 1.249732356096592
223 2.022354877272386 -2.726502473435603 -1.564172483246782
224 -2.1026122810854164 0.5678829115076697 1.5352039536559567
225 -3.025409577926933 0.4124400949798491 -1.8866269055584477
226 -2.682485292930876 -1.0059284335044296 1.4204261978671355
227 -1.218603003506326 -0.6406935029918632 1.2590352942877692
228 -0.7993658349927723 0.2012436425413876 -1.1440081137432883
229 0.4813829552839109 2.3552491193091356 -0.9790611559357373
230 -2.457591061971625 0.08676874682101027 -1.1677368425467367
231 3.073497420939905 2.188412477356608 -2.1171906691355447
232 -2.173154551869222 -1.5955971769016304 1.3066620276531489
233 -3.138577093470825 1.5997365717648862 0.6142612102614138
234 0.30580949468842605 -0.287797381775475 1.3404107559905356
235 -3.421466757141747 1.5971325752437942 -1.6268814785063628
236 2.8150888424711056 -1.6028609393701598 -3.123417730775782
237 0.370353787737651 -2.0424664489417923 -0.26083936252586964
238 -1.0125110727477216 2.7941499878398224 -1.8431325522735331
239 1.6531406451267519 -0.23818938145842194 -2.3031692134072386
240 0.24387391297647387 -3.1334481838451396 -3.444707480696385
241 -1.396983768137271 -2.0211676132901273 -2.167941188975293
242 3.030213220192986 1.3848202453778924 1.1232988109303583
243 1.7100346445710082 0.9220419299150824 2.0799790842962764
244 -3.081807396948558 0.6708086732446676 1.2323630828620562
245 0.7665675130295332 -0.5960890119156098 -3.4300708027695714
246 2.377005573984726 -0.8387945454340993 0.6336667394486319
247 1.1814282879720626 2.819550594327881 2.901887806714979
248 -2.988038887838673 -1.2824786836035837 -2.766925474559624
249 -1.3943700712766702 0.38300868160090457 1.7503305292620697
250 -0.000788552854608774 2.6436503483083027 1.6872631564095557
251 -1.106339633726844 -3.182558895129331 1.6361047904680839
252 -2.757641293333254 2.3360914611893504 2.311289081134152
253 2.030099802362182 2.869772987078703 2.663696998120695
254 0.8269312465711636 -3.406376987826085 -2.1320500326968146
255 -2.769116878762392 3.245652412736504 1.4660196885082188
256 -3.1270023615483358 2.356530733965896 -0.20107704036566743
257 -0.08931118925766267 2.7951621328658987 1.326579953910311
258 -0.571805219182679 -2.3370603037838427 -3.1960591131341234
259 -2.469372166200134 2.7821797108773727 -2.3271477275643893
260 -1.3621540610357465 2.022543864832969 -0.8270585180854785
261 -1.489207448228476 -1.786756833640146 -0.3068130549124283
262 1.4265420226206627 -2.2937773953412894 -2.4141866406422596
263 2.9641822292626414 -1.0853285548084652 2.6385508337938424
264 0.3583202909877782 3.3316878820895193 1.0369181351762944
265 3.2579566890141702 1.9197268564704104 1.3036003169062276
266 0.7688861713246773 -3.150625886653842 -1.4807706979655415
267 1.6488892860315607 -2.4837369589473672 2.3008946066000235
268 0.34777814570382537 -0.8325360668544981 2.0093491237323935
269 0.20161485442149046 -0.5488845430303462 0.9751277685135993
270 2.8529352198062714 -2.2236086327464277 0.39244578971733485
271 2.5137476473879605 -0.2886520719219106 0.8170424119229845
272 -3.4578396335693107 -0.6998078714772195 -2.6154161231436652
273 -1.7959470852785924 -1.2350039490797087 -0.7400767886701467
274 0.1440749187151891 1.2760423364920637 -0.04103481913924694
275 -2.413739243119054 -3.4110904665836856 1.6969661707627375
276 2.796019708811775 3.1753199045434903 2.828019463539654
277 1.2335226013225526 -0.5607930633130601 1.5290571095483092
278 -2.5248513920746194 -2.282770107498428 2.6469838223344064
279 -3.2432352520537746 0.469001546804981 0.6051810447177055
280 -0.04903438057912006 1.4984471864035203 0.7368619321438649
281 -1.5137909413005555 0.2807435162071552 -0.685594806037721
282 2.2897665148652644 0.12368722383943417 3.3784082612212814
283 -1.3638358839853824 1.4389634444586512 -2.424944745777096
284 2.0910255400588253 2.584384370928645 2.185425525983829
285 -2.5438071800060893 -2.5202920889630502 -3.0591818956321184
286 0.3521371753448582 3.222630374613844 2.0940754790940876
287 -1.4676521304438737 0.6168365481913108 0.7351433445852211
288 -2.7152741452808873 1.5681880028908384 3.271708606568692
289 -2.202472983685875 -2.9804630981875997 0.19426748294296575
290 0.5897974623810278 -2.5881111135038894 -0.9772892197324992
291 -0.35947718830213016 2.097350833484466 -3.1145505763086545
292 -2.854879501090767 1.3397894356596947 -1.3527325071687932
293 1.2476707366355835 1.9229650424968987 0.3621570758015889
294 -1.337240566280825 -1.4193226750257426 1.890700381397179
295 -0.7649091945697227 -2.0251765444652037 -0.33900271310147084
296 0.2299057753586533 -2.5919850262656574 3.120903728613063
297 3.1184850045272623 -2.9827622591226017 3.076496489590068
298 -2.718602586359962 0.9927145751955077 -0.4860411361427004
299 -0.3533732254959797 0.8760866133876195 -2.092829230047907
300 -1.0520117446936244 3.2939860527038505 -2.833621257794027
301 -1.1962741787156754 0.9218231824251046 -1.5965099797662639
302 1.1367371254902443 -0.8687340954680937 2.651075886385884
303 3.2457449992834153 -2.6217127157284543 1.7783490221261329
304 0.29811681285569874 1.9146840527978402 -0.40234732552438907
305 1.3854937082353522 -0.12234991545361021 -0.10722113474178346
306 -0.5737253353229972 -0.004929906422665035 0.9700956900004591
307 1.3272453319199056 -3.2834798802878398 1.0297032482389905
308 -0.35067201610403015 -2.169618450881687 1.193146356933906
309 -0.8820201752764711 2.091345675565026 -0.23267262527064367
310 1.777937775244904 0.2537210322894609 1.9140132427882601
311 -3.4258027863432208 -2.0714654785495714 -3.1982168328064344
312 2.7900601424880254 -0.0972486691772805 -0.3935478542899402
313 -2.977291672221179 -0.5923421123700271 -2.7422704020055417
314 -2.2588340671028293 -2.104679212215474 -0.8443761990491849
315 -1.8778835166483374 -1.1204157463039195 1.1880036204281708
316 2.653165528828988 -3.211135221969229 -1.1176117335662643
317 1.2002582840922225 0.9428896030984668 -0.4891058730088242
318 -3.4174744196703686 -0.5106962786794121 -0.8202293243815317
319 2.5577795573941615 -0.7597192662635527 0.8766248395145095
320 1.3625767077092394 2.2710727603067706 3.0132901666251763
321 0.7612162675649221 -0.5653133796289751 1.6838499968836365
322 -3.105675997557773 0.91209769937855 1.044203821701195
323 1.135809589339073 -2.6164252411336775 0.675776380548139
324 3.006309946509759 1.0433589166014388 -0.5532453718571605
325 -1.780133691715287 1.5539316749538918 -1.0304429293973971
326 -0.9429984398281489 1.4939154391559644 0.6995351513997268
327 0.9191121839371508 2.561539723333532 -1.1258205604738685
328 1.6485939187502803 -0.5272703818905645 -2.5530030526931844
329 2.154152471706842 -2.2297643457359113 0.7439446785426719
330 -0.1260482667045695 1.2977996275915136 -1.163580408202453
331 -3.1970597636010964 1.4215349346990296 2.244384086391368
332 -1.2880221264421163 2.231163343124684 -3.3566549530393437
333 -2.5289087733839732 -1.2681330384209615 3.036381009481561
334 1.2895616366905214 0.07146596494954525 -2.295526235340705
335 -2.7939787200151054 0.6349548906662827 0.7391284857582197
336 1.9766532874658078 -2.6349257898761103 1.168754975701958
337 -2.5064006018843514 3.3086637846589033 1.6303631369539362
338 -2.367749276076508 1.3440890547496174 1.7039208017805374
339 2.0305271748283853 3.1319175530168133 0.038667076181930604
340 1.4400520270611143 3.3063240821056223 -3.0894953083525145
341 3.0067406254704263 1.3610757349921931 -3.470532249837309
342 0.5705031132644777 -1.5951264590645324 2.2973122422151113
343 2.4253201903294412 1.4625389562384237 -0.671473254811271
344 -2.593978596022576 -1.42533530639612 -2.2737324310031704
345 -3.3028463165944273 2.0879884750740656 -1.2915054885287434
346 -0.8947935372237112 1.951290107984592 -1.1070759466776108
347 -1.663087790296259 3.2643263397398097 -3.0336949496770234
348 -0.3724395167302452 -1.2186643781634892 -2.949087341295356
349 2.883217478645594 1.5188891114655856 -1.7309272266185995
350 -1.8642723483017338 -0.740756971692392 1.2235039142558266
351 -2.794685307569361 2.600746813376257 0.36081680148378475
352 -3.101117604992258 1.3972523390685616 2.448363263868746
353 1.2412993345023662 -1.3506235074210462 0.7599632326752352
354 -0.8096834286965625 -0.18894189860986157 1.8354426713155412
355 -2.1068430825507978 -1.332152581775213 -0.23089074702508516
356 -2.8775569193445345 0.8391668891826872 0.2607686760777416
357 -2.8787742346079805 1.1418626770582003 0.9510874493361504
358 0.20815026963730562 -1.4394325874375733 3.0179216791252808
359 2.475297647896315 -2.892277488962447 1.2990443929320963
360 0.3252211470135404 0.6907329901241699 -3.014162326706016
361 2.639244500700516 -1.8779028769114225 -2.7226736633353563
362 1.830442506415035 -3.149434804202224 -2.2243613542275344
363 2.913008700498117 -2.9914717814613603 2.030348486377684
364 0.18197468336739825 1.5525752806699014 -3.06524823981266
365 2.205657636065215 -1.6705261668005755 1.5433429800142513
366 2.273821428719338 2.0420988372572966 2.560252761293715
367 -0.6635342464130217 -0.7097233651607955 -3.168211098097194
368 1.8850168324123384 0.5482717254547537 -2.796889781406943
369 0.2069513141194344 -0.8281645556802694 -0.646411779926927
370 3.3719613728620033 0.9613091169449032 -2.344037965162401
371 -1.4874939557651021 -0.6709068958660821 -1.3260321744266177
372 0.15437235440448552 1.327432128041663 -1.4208674372844972
373 -1.9798615842196696 1.268912019757214 -2.22829213160413
374 -0.8652264061046568 0.5953407311935353 -0.6684203130423575
375 0.2718823993441333 -3.002722003188888 -0.19310730265667236
376 2.364685488599693 -0.2813354055419605 -0.7844262639438536
377 2.1985271356362293 3.059833646914146 -0.35225992218253876
378 -1.1214640969319638 -1.3133464626701432 -2.5088527308681887
379 -3.247471757705511 -1.526904206557025 0.0717675285740558
380 -2.817706975081043 3.2350314626678305 2.898028196314254
381 1.3505338425583857 0.5670679025175035 1.6787568030088873
382 1.262172705528688 3.4328996550667035 -0.39011392765844094
383 -0.6289225649157445 -0.33036821762129986 -1.315066530366857
384 -2.405068718723284 -3.0203808911777865 0.6042546300675796
385 -1.7778764581613509 -2.0329708252691443 0.1559048122885321
386 -0.5460921876402429 0.7381834705765695 -1.3949518201134241
387 -2.4204656228923205 1.190620734272039 -3.1360773087073954
388 2.1426661707863857 -1.5002986567667735 -2.614547926644113
389 -1.0455774643796243 0.7036637134926299 -0.2293333526829019
390 2.5354563691130787 -2.227503135365047 -2.776119459568704
391 3.258526772488501 -2.3402891375228716 -2.097431976690717
392 -2.2826253614847567 -0.5641044240601086 1.2406528222028983
393 1.6781271437989127 -2.4530790842705827 -1.485041216036938
394 -0.9186632045480014 2.17465085384379 1.895155051229442
395 -2.0230225326461535 2.536821537341264 -1.3221041202350334
396 -3.0338655830205776 -3.2935480431353854 -2.0890023655441086
397 0.9797597088067348 -2.3997718772067476 1.6783108194261849
398 0.6872311045866564 1.69285768150504 1.6215415934187252
399 1.6240669454636836 2.490158002571243 3.364176983363737
400 1.6757337381035802 -1.154821764490091 -2.655472730892656
401 3.2016848841704424 -2.624688750885396 0.20505745417649368
402 1.9985276722980518 -1.7894770118687562 2.420082771602232
403 3.4596744853173633 1.045537290584684 1.4551637968611855
404 1.277047512288272 -2.6322886575108884 -2.9538926767895073
405 -1.7523069626393062 -1.3701369456342143 -1.929282559754947
406 0.15719987446311415 0.40463043865438136 -1.6501357704721173
407 -0.4603457078369838 2.3727390280283327 2.304246799008725
408 1.3224401704517785 -0.995374992642411 -1.1462095461747683
409 -1.914569552906826 -1.7599289978307533 0.7428326135742476
410 1.9455892296026442 1.2449936928228766 -2.8227534518097297
411 1.5206246873770561 1.0329491986766528 -2.491762695280634
412 0.23587294726420976 0.8084105608939451 2.3919946425467726
413 1.99039365079931 -0.08388687045554259 2.715660108739597
414 2.1621677526709653 0.9896778210695684 -3.0798364160419296
415 -0.7531636754405013 1.6020382012912717 -2.2264781810068137
416 1.9390233888368944 1.6241795194860305 3.1053196207823244
417 -2.737549785784857 0.8995396237370249 -2.3982392792672003
418 1.0840103918989386 -1.1967729516716696 -1.8172193908030267
419 1.1712636470302067 -1.9206623505222984 -1.6278813933701677
420 -0.14907132642444715 1.9086854337451316 2.589429358677771
421 -1.6624796337950323 -0.35579629121687817 0.3989779081067987
422 1.5677898424943242 -2.143303202281783 0.5484432690801013
423 1.4163878264629761 0.06225962087002826 2.1496517115863645
424 -1.6930165603848526 -1.4577904445081025 -1.0115852695847647
425 -2.354715751668185 -1.064009367780057 1.073494596270784
426 2.0558401592131545 -0.5164312515278447 -0.31805535845584576
427 -0.6638328460665704 1.1924167311845033 -0.6335750950657314
428 -2.3444193182398814 -1.029464576730236 0.3286219934135022
429 2.5363965672688784 -0.2670016779193059 -2.102122683820754
430 1.9291135864488569 1.1670381486566448 1.9122657185690017
431 1.8070800282707722 -1.3224499831508678 -3.2562230325726906
432 -3.2215130336436513 -1.2430107317729737 3.10401595638373
433 3.034580561188036 -1.341028859717805 2.8410042896654795
434 -1.9930478551368624 1.1097998677274312 1.8863999630766257
435 3.0857093008102052 -0.1876567486466415 2.6728446825391696
436 2.316564850040815 0.677515739351929 3.2267515709940273
437 -3.4385822714283565 -2.314432624746014 3.389300904586506
438 1.7705048433671278 -0.09888451380672651 -0.2043706472355227
439 -0.0793260626053936 -2.402426060899657 -1.4063276660716466
440 0.16541661633212495 0.08932156035470112 0.21317337696869687
441 -0.01124742990858595 -0.12108445943548582 0.39918474125951287
442 -1.8766698333724754 -1.4841543494953497 -1.1846500838070124
443 2.561534974546828 0.07123655675422001 0.7695146993654929
444 0.5456143430958397 2.262286202447873 0.6724061764459112
445 1.7289253886645037 0.06637212653396508 2.0614896699967025
446 -2.4016922206798395 -1.6372140633130232 0.8428039387175552
447 0.4324638434298894 -3.1851359337301606 -0.1519561324455275
448 1.9219558735059805 -1.4806672321317598 2.0576956577390675
449 3.0393885006271457 3.3382600844732715 0.7646520222962986
450 1.8670545236044742 3.166744427361385 -2.885936065340148
451 -1.5217764670372094 -2.438602542513267 -0.4024604746672965
452 -0.5162039366109994 -2.141408049207855 -2.2032413851019204
453 -2.0003028292911593 -3.172574693393154 3.3436760054707215
454 3.1510219670977584 -2.86968574629866 0.3597172986161597
455 -0.8183488805559912 -0.4943973557307091 3.208294206487282
456 -2.21980622708795 3.2900074052797246 -0.49570377968092305
457 3.343484192515456 -0.1260522933412816 -0.04674603098993921
458 -1.5122141881745086 -0.901584588480492 -2.73150676348767
459 -1.2926778092233882 0.11085204720378317 2.199433225517866
460 -2.420353211748665 3.0799148256957243 -1.9624073435634475
461 -2.9146837119595848 -0.28743397354135447 0.527508473312571
462 2.5212035120285083 0.44938441808560226 3.093913387946617
463 -0.6623797964395415 -2.0689960814902473 -3.2192872979735125
464 1.6146802298552752 -3.016872810123664 -2.7217673551364583
465 3.2213554582155397 2.705538968775297 -3.177068159054906
466 -1.6408127395471501 -2.9976417645848454 2.142009233038975
467 1.3532314908622434 -2.538488369315324 2.5476355329174116
468 1.8205471127372777 -3.364408981351517 -2.6876215155248913
469 2.6920105061646633 -0.8898216538580132 1.1884101774482325
470 2.5654648914614144 -3.085694595176078 3.268842823343622
471 -1.9227603326711582 -1.008275026199196 -3.415234855376697
472 2.5794123586547806 2.9461388969703775 -1.1054875305852243
473 -2.6493964197147823 1.4624058263297512 -2.908987629878283
474 -1.3899711413354845 -1.8119250058136782 -1.1453098896372478
475 -0.6354510738765535 0.6762532546670363 2.7702848926158667
476 -0.21278461942548452 -3.132141109825548 -2.2388278540387008
477 1.9992029480587297 2.639178224310332 2.652024331441617
478 -1.5758523696097888 2.240693427172869 -2.3607352465717932
479 1.6301808116397054 1.4353397198886046 -1.0425433327082465
480 3.306657320862658 -3.1325860170250626 -2.7956786827398132
481 -0.20022680804570003 0.30586054406573615 -0.7066804727003013
482 0.8588950673210852 0.9153138936718802 -0.2668544786011512
483 1.7020001530674125 -2.6202717738009382 -1.6865578962645895
484 3.335684242974905 0.2735807758457951 -3.417796009268743
485 1.0583257362665939 3.1256016684080863 -2.301838439621286
486 1.848075512866858 2.5389167429983632 -0.7115050090658127
487 2.821366054629964 0.08767671148984398 0.25101639946883647
488 -0.6883798355686778 -3.0472718919886317 -1.5070052178263442
489 -3.270304181583761 2.287998189834163 -3.190603655085229
490 -0.748646894431045 1.3878274183023862 3.219922838136774
491 -0.5571193531223366 2.263633998557176 2.562701964888799
492 -1.0239962650579473 -3.3784563846007525 -3.4783758251240156
493 0.23691826680686523 -2.385017306316509 0.5130227242894826
494 1.2838762548136367 1.407115389687412 2.1197476499705328
495 0.9208464306152883 -2.894498724910964 -1.4297458260983116
496 1.0565560398427445 1.065131766916552 -1.4142872232582133
497 -2.11747602107893 -0.10163411210157443 2.028062126023588
498 3.279343053310704 1.4837189643424584 2.344994799261877
499 1.024337544896916 -0.6161638516381138 -1.713382815526721
500 2.335056984302697 0.04311496958421586 -1.2620966663059305
501 2.009263940389529 -1.2833355104028747 -3.326204543165288
502 -2.8810010619482074 -1.6809020624452466 0.17327671847236287
503 0.7539471554074944 1.8353991141630344 2.7516524321469324
504 -1.9368464115929662 -2.4490513647302783 -2.998203637525849
505 0.9494590837764287 0.4697542802600427 -0.58503672314878
506 -3.2031303875327564 3.203125618365671 -0.4492525276563437
507 2.0100714598152374 -1.5527654695998077 1.4259014014243925
508 0.8339850273050186 -2.505460244072566 -2.9257258686347902
509 1.0393334931057145 2.275376646256995 -0.7790478768648437
510 2.62392061656224 -3.3603580680094045 3.109738763523974
511 2.3279375377489644 -1.9614472088428792 -1.9492523070949332
512 -3.280528938848937 3.458114672467843 1.2357106474675905
513 1.6634500499392821 0.014365464291101639 -0.00571898000664776
514 2.8796888077346203 -2.421847100961976 -2.542637737186256
515 3.346398358198016 0.4073990186767065 3.357161823516484
516 1.4239182354733504 2.0531633345443296 1.6622378789382894
517 0.45679479251350974 -2.576438624073541 1.422515377067464
518 -0.7092905512907561 -1.537742882518459 -2.1555430432502
519 -3.135990257849362 -3.368248453073973 1.989421980541347
520 -2.5200660276781215 2.0171000955320477 -2.351331002675481
521 0.5111050855820392 -3.3163335283276067 2.5147985269219046
522 -3.3353592442373303 2.3788669903123303 1.4863418030978879
523 -0.6877416563555363 0.75790166974368 -2.1849931483132483
524 0.18681604224860232 -0.12715968538868 2.1034292489979123
525 -3.4350442482299233 1.7834874830203151 2.2816314822640384
526 1.865557687096081 -1.2284733485839021 -1.711545832262804
527 -1.3942876667314081 1.7679818738174014 -2.255076870190848
528 -1.1905370531008668 0.45583076098125724 0.7063268586089341
529 -2.5846408010632502 3.2594861571456226 -1.3341901277264192
530 1.4577407153953403 3.0098165533088608 3.336393625440284
531 -1.5919631543125847 1.3742093952640433 2.7250572594640627
532 0.9238770873849647 -0.4031817117177815 -0.1267699936963277
533 3.0624169454856673 2.8178823035129956 2.545741975082041
534 -2.321661532189878 0.8218995210762595 0.7177007999490008
535 1.7181705159019354 -0.7524580819583474 -1.6573310665908587
536 3.1809929481653834 2.56187096253477 -2.4793877788070957
537 0.5999599118840574 2.1152703189995083 0.4679501128756812
538 -1.894716161300383 -0.27779099816659464 3.420792705526851
539 -1.8410412146880424 2.1454551554922037 2.57307047731825
540 0.2219802982685331 2.6186109908425794 3.0137551158218354
541 1.654912942272855 1.8659908589505432 -2.1457284395429226
542 2.6418513589828985 0.41133743386215144 0.3430611099074574
543 2.9899709073397256 3.2613065273696167 1.5779543327957053
544 2.6476518494068175 1.0103173591277594 -2.2263439489333194
545 -2.725642625483297 0.3227530794518108 -0.5427216539955699
546 2.0743805695832895 -0.33945546989144676 -1.7890170168852468
547 -2.3600465909700814 -0.6902673587583865 -1.444221749096429
548 -0.01562521568780559 2.429219158136798 -3.491423816251294
549 2.401874543859032 1.8917137197406542 1.094715500490555
550 -1.1610552430743348 -2.334110217840763 -2.0588959825613804
551 1.7663119312345053 -1.3621139914114955 1.4191240642530152
552 -2.3414492354175156 0.4437861040068938 -1.0277931769227018
553 2.067164561144939 2.953771230445085 2.5984606551356615
554 -2.1289784838607266 0.3561991733100454 1.0087154647697318
555 -0.13642063348819072 -0.012957066274306957 -2.448994939320078
556 -0.7197178716256406 3.1486005610695 -3.3188999973756674
557 2.2345239740520872 -0.9632967691176655 -1.8224557017466276
558 3.1337437739280714 -2.5946904606227554 -0.825104669900762
559 -3.2544033753929353 -0.37462662894367854 2.2698975165292157
560 -1.5674791590086092 -2.3655499431046554 2.4278859696285715
561 3.1146387167855174 1.5797244007473947 3.3842221226447413
562 -0.5401295694156584 -2.858659131898977 -1.1749952714398884
563 -1.266940936115608 -3.333903463236399 -2.1135095965450463
564 -2.5917077852160317 2.1366595515027416 0.08014817073101822
565 -0.3783437137738948 3.360063012286271 0.4091226778548297
566 -0.9466768407969016 1.957370619172601 -2.7224915128737703
567 -2.02885915925177 1.3305008062749686 1.7094763151253543
568 -1.4878226683662816 0.7251248896434348 0.5920215899217927
569 0.24255201774047047 2.332276478795774 0.47922025413759545
570 0.6635272421684737 -2.2178029892185647 1.078033932986626
571 2.2207231334523985 2.3899273722061576 0.5191595071147551
572 0.6142180960985976 -0.4720841610552131 -2.4125889270483842
573 2.1341367073742163 0.479803719196443 2.2189761160243133
574 0.7638972738245196 2.9701319841957194 0.745470000533097
575 -2.1727794677779455 -2.2122633283554896 -2.706748570846013
576 -0.42400249317846916 -2.7495503512001838 -1.3704035544204711
577 1.8406719398239408 2.679745134371565 -0.6896611496873316
578 3.1537735312421415 1.8516259871149277 -1.351472806900291
579 1.6573397287378318 1.1287641345935355 2.2664273989300474
580 2.3965946136146834 3.1210842589713197 -2.0981896344377278
581 -1.1751701684210403 2.6609960539073474 2.546949270958266
582 -2.792753161074429 0.47081058600116443 3.3268849208114686
583 -2.2285589594440283 1.5176286409707909 -2.1535414120309673
584 2.822607749650348 0.19473149847228166 0.13765809339351748
585 -2.7076998204809835 -2.6235200823411806 -0.9152437438088364
586 -2.5875388435569193 2.997017280820209 2.760859588347897
587 0.5523294401818565 -2.529053123005034 1.9496173785892217
588 -0.2076771038534673 -0.3385805733899545 -0.9260404633848667
589 2.811016027631551 -0.8476152123937803 -2.2804889076105477
590 0.7930273933692418 1.1900335511294575 0.8365445610034951
591 -0.9583302937138022 -0.1224872961090648 -2.4161778109638035
592 -2.818599470769929 2.0762653666295434 2.3786406169874583
593 -0.9881707713766414 -3.3606732807028754 -2.188040975650667
594 -2.593086702979366 -0.2766978762531977 1.0307792833749536
595 -3.0278629065833367 0.7035722080308319 -1.767265649116035
596 3.338558882190995 0.14271076590307397 -2.166030531471672
597 0.5391115158644466 -3.220163972490836 -0.6083233323918084
598 -0.10101694344030668 -0.16372315576271806 -3.3968236561069824
599 0.5847371755384126 2.332806078660501 2.4595007070643446
600 1.5692863373960768 2.246173190856506 -0.23150517168589496
601 0.6372167535026075 -1.4930996899879987 0.7265106740724642
602 -2.4697735088848716 2.95751768203479 3.2787322614640995
603 -1.8078812067231191 -1.111353334637405 1.2444580816980373
604 3.3467832167509965 -0.0449877549127554 -0.9738299497555192
605 2.4148375264960906 -1.7019802524341858 -1.1319342751827945
606 2.7059579089039465 -1.7797759150245482 -0.6304899327006686
607 1.062973236602015 -1.8123138766333327 -0.7603572820356441
608 -1.5956578718324779 1.5634323002633892 -0.5296362440503395
609 0.5383223658524262 -2.6419992774458767 -0.06337455922887349
610 2.7609951151218417 2.7768540085659 -1.8670683204827616
611 0.7655438178317626 2.960779219775591 2.7297612828076705
612 -3.0640562590532023 1.4238909183537054 0.31717452930082707
613 -3.0021119889308463 -2.5051366394574734 2.513096897232528
614 2.668872934098021 -2.203544859789995 -1.5102413348767654
615 -2.29408765970466 0.5687746530837834 2.681295676327851
616 -0.9823764878809268 -2.8660131977606538 -0.202099684961883
617 -3.435489970773589 1.2129331651666497 -1.849092834037605
618 -1.6314523340954683 2.067194243993696 2.175780894139133
619 1.4557727711026467 -2.3826052798365653 -0.4722750685208517
620 2.6296776681568432 3.429249926496824 0.5552382602248432
621 -2.0321720540059975 1.0163144602868102 1.6770726017035842
622 0.6386192614603623 1.3167381353833 -1.2164857343899567
623 0.3940000894369075 0.9007712188025846 -2.460934433012432
624 -0.6863586264216985 3.240372347138581 2.6931153402115835
625 -3.02971532660016 -2.7472331205629805 2.9717693973652275
626 1.9127991429569404 -3.1223391520093777 3.3264742709571293
627 -2.2096465877829443 1.0254533660591652 3.019163499831127
628 2.584464830439818 -2.106125967901287 2.522818883645074
629 -0.030608795158053943 -0.2544399509539725 1.4016882163960305
630 2.2045481943779746 0.445200816345286 1.9871636738269274
631 1.0487998642927407 2.200474295230601 -0.09464739353535773
632 3.1320089149361454 2.8510568297601404 -0.4670577457501369
633 0.3480633195718607 -2.960323340312583 -0.431341115015211
634 -1.4638131163454078 2.8528062392613296 1.2524498465899365
635 -0.749713715855827 -2.700831320933671 0.8072102573688751
636 -2.609953859570215 -0.01411528358894543 -1.1530399258338444
637 0.939215567150362 1.3245821844075178 -0.8749387815867891
638 -3.4110771843406384 3.197070805020599 1.5980666847945817
639 1.5614326911588832 1.7433258795699311 -1.4061037751458356
640 -2.9923530671059715 2.336859579834051 1.3796501955375753
641 -1.391131276159096 -0.5481975656308788 -1.32025202571133
642 0.41146918270996335 -3.0864705030967223 -2.8511371253951983
643 2.0048314105348157 0.34688443035354627 -3.28867098727711
644 -1.838634341312043 1.0735491446781853 1.6424913457562413
645 0.7706263316649394 -1.5865689420126874 0.7887073882794504
646 -2.1559733363129894 3.4202092616379525 0.8642823950080442
647 1.5442460936867104 -3.362934420174249 1.333214770213105
648 0.20828080526913315 0.754479776689498 2.5895905518942315
649 1.0466947552657713 1.4234292466471727 -0.5214373688531682
650 -0.07727166605101879 -2.4777055392117617 -0.13960100015280083
651 1.9535301112186287 3.2140060154551047 2.4792650424641485
652 1.5546566720735056 -1.4099553117557886 0.151771968138668
653 -0.799759079021966 0.512695717415663 1.3784323034100854
654 -1.0981308422689855 3.289214139874498 0.01329350173632935
655 -2.8506407943320915 3.3726891933347187 -1.924491120561115
656 -2.3615352772596645 1.9722000663711934 -2.6293334935029216
657 -0.4012386129949074 -0.7957621506763871 -2.79484428918415
658 -0.017983265095845243 -2.5989948750964618 2.9583504794350337
659 -2.156411356593723 2.9791068768854774 -0.6690069805522738
660 -2.6675339662838176 1.1356574762237013 0.47084412698915545
661 -1.699952270906554 -0.37430113260124603 0.8198100702519209
662 1.5339670596381432 -3.1050478359883695 3.2720347474519555
663 3.278976841323969 2.24949857681204 0.2926207946789215
664 -0.4344613670097422 1.406473478582858 -1.7481478107287984
665 -0.6210415998154228 0.6316272262589098 0.17670857935049852
666 3.0675971459272127 -0.08764703142872612 1.8049748942887904
667 -2.0466405293348116 0.06930618274657398 2.929241120550483
668 -0.027388508030445995 -1.4967099855498285 2.3346134282428443
669 -0.43775333352318185 1.4440280755064685 -0.352144407574781
670 0.8199899156534142 -2.4173496722909755 -3.082103272590475
671 2.6720051543891654 1.9947502587103014 2.65370757882649
672 -0.9683314662100628 -2.115286075844282 0.8243831035624154
673 2.265188700197907 2.2866245218558983 1.4049765283629576
674 2.10557163421723 -2.08477215613943 1.539700541201173
675 3.341692559144418 -2.5552164662218537 -1.7733102335981168
676 -1.3629098786186844 3.1609266954702333 3.1460111431451465
677 2.935828159437548 -0.10357143103667586 -2.8496393220755585
678 -0.5044060904344015 2.365267381805533 1.3009692561156354
679 -1.9271256949258577 1.750830767986096 0.15587531165469048
680 -1.041909340614424 0.06747957336733408 -0.08776482218247954
681 1.1554095926085683 1.5277194529831424 1.3458287146538732
682 -2.330993658412593 3.1530569872755274 2.373210511952157
683 -2.2827879436867087 -3.2966234922701227 1.5875598152303172
684 -2.009912236979433 1.419017654701359 1.4606860067812575
685 -2.801032990599992 -0.2741947793765171 1.5761016485171413
686 -0.8075949262641074 0.30899611596920246 -3.3727592794430117
687 -3.2868481718472826 1.0613327723582926 -2.977648502089497
688 0.38439668564647583 -1.3274333956085524 2.9567219471213173
689 -1.8443360590762932 2.13464131046629 0.7630934387762824
690 3.3547591968379415 2.513924569144184 1.4080019095659317
691 -2.412482275703676 -3.0473525369374244 -2.8624048721879247
692 -0.5131681492963067 0.43613803406779333 1.9244803538513546
693 -0.5226789873552736 -0.23631433161301726 1.5279756441558439
694 0.06107317736891141 -2.672625289246674 -2.662623853405534
695 0.6647448603661105 -2.5154073621520228 2.910672408392453
696 -0.6800324388277856 -1.166664338577666 -0.9931856881635311
697 2.3760523593268417 -3.018064353421977 -1.9859221492650385
698 3.2728363266072837 2.8564348365600596 -0.04805561549606812
699 -2.760287562064757 -0.6155202679501032 2.182623755331404
700 -1.1882352205441193 -2.381496298996018 -2.5957475020572867
701 -3.419247216335616 -2.623271937343894 3.2553292255880364
702 -0.6625501840309587 1.9880041430967847 0.0030140390681095085
703 -2.5999580206493325 1.889042094772854 -2.283058492096665
704 -0.8697522235765652 0.6576756897406906 1.9688524847352764
705 -2.1963583633970813 2.898097466034239 1.184606129689856
706 0.9171744782775507 -2.322661403415047 -3.418397188615473
707 -2.1249910706812978 -1.8343922554159298 1.8863720899083831
708 2.617244962152385 2.093894315696835 1.078095228819668
709 3.2509221993873916 1.343035749346064 -2.1575741686578667
710 -2.6695926168076785 1.1394404893920531 1.765606185632656
711 0.6711025466704412 0.5276592516660628 -3.1955130710327935
712 -0.2127470426950286 -2.500589001055726 2.817506306479581
713 -2.4434962688577806 1.6740045109192965 3.1087093415809193
714 -1.13214811209826 -0.9412730506202536 1.5328439867389436
715 -1.1651467109255433 -1.892365657721993 3.3467303007753806
716 -0.8810726358006051 -2.7454717741655976 -2.028804069520312
717 2.309667844196024 2.411514556089451 -3.462378063878665
718 -0.7961829505695954 -1.669653645432046 2.3664006738093697
719 0.9162384406328166 2.707467322147438 1.5499490723549059
720 2.571143821484579 2.390924148156115 -3.4901405225656674
721 3.208078097565386 1.0154816748605215 1.5218568891376187
722 1.0337246891249787 -2.0226337019781706 0.8743241252361038
723 -2.702005801756962 3.106694456296355 -1.7229466187284872
724 0.77241946359341 0.8677814856344342 -3.2630219070759403
725 0.161779240387275 1.2422843170985964 0.08570006497906775
726 2.963184757208587 2.9122720533029796 -2.8077622184171114
727 -2.5877812038002466 -1.0763313287789085 1.5994302947131767
728 -3.2031933011632843 2.1457362300805536 0.3763866101761849
729 2.5145915672571073 0.053700221758955564 -3.2940796774432965
730 -2.7733318084098064 1.6123745640240648 -1.520841569403125
731 -0.513913032244044 1.758299278517751 1.1064512934986341
732 2.302692584648923 2.8303033981143817 -3.2347597391052547
733 -2.3645723504333156 -0.6269574484138172 -3.183047512782171
734 1.67475626937422 3.178974721763231 1.9681922138851475
735 0.5478784055598818 -1.2098428056239405 -0.019711613398756097
736 3.009451486861322 -1.5224081829850358 -0.49131350592309964
737 1.003066031331084 1.7501402713936909 2.392108030169788
738 -3.0246050427252733 0.0928542822047984 -2.698710750289024
739 3.1742626109114136 0.1763643116732211 2.872050870804007
740 0.7540058247366496 2.8214545292706337 0.297800021863812
741 -3.3563482265525346 2.57296936911493 -2.807489171584814
742 2.0013169066313106 -3.355746887549819 -2.4386049346766123
743 0.8874783326430302 -3.1350589880632955 -2.834676081091237
744 1.8374240856849846 -3.4620080642976836 -2.8284483632228024
745 2.696111197395166 -1.1765488781878266 -1.0257355512187631
746 2.046157399555592 2.8423345487356295 -1.7276409804050366
747 -1.9979680252481946 1.464954489020489 -1.5978406278667545
748 -0.46535207883907387 1.2791152783629673 3.1609678903805936
749 -1.7521865753028654 0.6532130179340087 3.0924766387572076
750 2.872994471308774 2.7184166399879457 -1.2838867677563899
751 2.5803659600371636 -1.7887960899303974 0.022928842524944742
752 -0.08567105145535102 1.6886179144766977 -0.4291781165534927
753 0.2861796620692659 1.9874205178195918 -2.8852715211843085
754 2.7265126866201372 -2.3508505159052255 0.3357978630715927
755 -1.431442612889963 0.16820440541470108 -2.7781086189228548
756 -2.4904565985670226 1.372053071022631 1.0872381017408381
757 -2.261015505877727 2.756106139307515 2.379421204274537
758 -1.7102491845177772 -0.41691635797411186 -2.5817219970827896
759 -2.9965372102605863 1.2210103156051548 2.4101895886995255
760 3.281856804447324 2.208107476276501 -3.2971585523125513
761 0.8456540523283996 -0.1638819351737663 0.8552752559405047
762 2.416758203386932 2.8960183577843983 0.8445561423032478
763 2.1989316140121105 2.937197236805874 0.8675285024413477
764 0.7359379369179393 -3.2552436776445375 -1.9330475999022223
765 -0.8354896189480278 2.090800377908356 -2.476785867375592
766 2.806058499933645 -1.1203295486358664 2.6367278273978485
767 -2.5981303123279753 -1.9961865158701315 2.447094736613561
768 0.683275177226829 -2.508073193265803 1.6033683554011646
769 0.6974524200037939 0.4648940588914146 0.7776764167837492
770 -0.6944904790405433 -1.9382896205607247 -0.2991165670660933
771 -0.7119717412444905 1.844428879836451 2.259425687427236
772 2.3708054360184563 -1.233946241462279 3.1954061903942934
773 2.6338504512793093 -2.5665333431394344 1.8036646716872393
774 -3.3054383729966226 0.047523364607506925 -3.297950718775662
775 1.3731212539077882 -0.445055592672073 2.0107691084147854
776 3.305183990758377 -0.21202718552428154 1.4004760187867842
777 2.5932563963809723 0.3189288607881246 -2.530024472736064
778 0.7956952928910372 -2.415510500810937 0.14603389827154215
779 -0.3496367062804827 1.3894248064031416 2.3844067533850763
780 -0.9665789661355877 -0.3438352182974971 0.7283007315411699
781 -0.06709552650073593 2.4557645174815335 -0.2686556157267442
782 -0.8868936226229539 3.2317698056869752 -3.4757093661509777
783 -3.3928370881026635 -1.6733330325482705 2.813281673269955
784 2.6808425858558644 -1.7300374983157207 -2.0821616055549463
785 -1.6995632035019461 -0.7559497368893886 1.94476476924781
786 1.2829713774953841 0.040251248889805934 -0.9477190624942423
787 -1.6645665796613798 -0.8275730992319779 2.3734922729764922
788 2.4527695923120527 -0.8825616490625292 -1.3653697485379035
789 3.3953937256777698 0.3087078998684432 -1.2961028113604596
790 -2.034249160956558 0.7099003099110132 0.7785755480204922
791 0.5757992698242504 -2.551781314962775 0.5956411894305202
792 -1.209179300922322 -1.4327270650056028 -1.9343388568898168
793 -1.7755323888439383 2.760279824787144 3.319508325025039
794 -1.6343238182841902 2.251090798918034 -0.6297201640314404
795 0.15906631324301454 -2.829655355247976 1.842165754262456
796 0.15674042964515356 -0.39655414327663374 0.5315012200673774
797 0.4202534846759506 -0.7835013050391447 2.572758603346284
798 1.9010189249720746 -0.4120330910480667 3.3635960200401764
799 -1.167812367445247 1.7508765303851075 0.9250039518374932
800 -2.172810357397278 -2.7314251604788815 -1.2513199371637782
801 3.1954343205522475 3.0533600947273043 1.5780200501788484
802 -3.1685405656377674 3.215086430246016 -0.12431698731033924
803 2.7658684335601578 1.6342633188941396 -0.43387556558062257
804 -2.536096927990305 2.49323301664092 -0.3196973358913003
805 -0.5777297095943974 1.9005964495369667 -1.8687432307319831
806 0.298145153316044 2.3910021698237247 -2.178830355042735
807 -0.04568456330338068 2.4331903514462114 0.9660818732058825
808 3.074071200855903 -2.0094774215458515 0.5293861980024248
809 -0.5233999932879215 1.4871479054506296 -2.311132257559702
810 -2.0976241602569603 1.3547759929085823 1.380974127522605
811 0.09808017562508506 3.3612962573763587 0.37415948634717544
812 -0.3131562592109045 -1.4263994400856363 0.6034860699124105
813 -0.8536580390228752 1.2451610156226416 -0.010559156155427235
814 -2.3414025158753704 1.2290014488470407 -1.6969234857013709
815 2.138834417440383 3.3064675923443807 -0.6775187255369953
816 -0.38963798019911916 0.39634798907034013 -2.439176458699701
817 -1.7974214498709074 1.6681682420338413 1.9084008132653485
818 -0.864043148378728 -0.2797600897419676 -1.9909115076118904
819 2.465144273528188 -0.5224286556210865 2.6941411495032797
820 0.36965249186361954 0.01226274328791196 -0.7426285129298331
821 -1.2185278726043438 0.6220315666265639 -1.9213399701057594
822 2.1549191111303343 -3.186264502166566 1.6423075774971696
823 -2.3179667985564643 0.6329474360206399 1.603360624133895
824 0.5675130110038965 -3.4048438378872654 2.8734875684301504
825 -2.7822350668315905 -2.6898957865988367 -2.2582849626059307
826 0.2566895149070829 -2.2834652157804807 -2.1149966005830603
827 0.09903324203857788 -1.3826299516561311 2.642603909570443
828 -0.7286798670533668 -2.140862648424653 0.04260510464287705
829 -1.5805483651973449 -0.5571552039625862 0.38421895111620424
830 2.6593607489487168 -2.8986377727663277 -1.7876783958146747
831 -0.6239556784849708 0.09963834193704377 0.5897095929561383
832 2.9090458572151716 -0.3879341025414634 0.0737319117786567
833 2.5148636505008626 -2.2941011739824066 -0.9352297883637376
834 0.6215295255842944 -2.161569318633111 -1.939177412018406
835 -0.04867475257697437 0.6220105449273566 -2.2746516686911415
836 2.0096392822971376 -1.8956685427571125 3.200777303830024
837 2.93699580960725 -1.2409884494655108 2.488992330225031
838 -1.0557252956966037 3.166674607475851 2.861305592031711
839 0.09642181073899896 3.171975511078845 1.9844342915552475
840 -3.2997011345871687 -0.4165733172302557 3.1837637849072387
841 0.7396666894164211 -2.87244069750511 2.502183686569381
842 -0.8111423694267881 2.97345914263854 1.2993861607078108
843 -0.8513923200888971 -2.1991277022341045 -3.398823501948113
844 1.5768504913416652 -2.1164764428555785 1.5799981653258572
845 2.394822815987724 1.0252994368178714 0.43207474140215635
846 -2.750795319008769 -0.2555941173294872 2.7657273637350657
847 -0.6834233101317645 -2.791402556246324 1.1314425359913125
848 0.16753227326979586 1.0436453441013909 -2.659962853693336
849 -3.056764291477902 -0.5926905672568651 -1.678047211549535
850 1.0399683045930135 -0.8967556337875834 2.300985551311298
851 1.8762859080952816 -0.857579327014954 3.2702484927741535
852 0.9402123656592484 -2.684338697351688 1.1705558582339224
853 0.07821421869513845 1.6679728655944006 -1.3752910044165103
854 2.745753538847702 2.677747090022057 0.33272983582452553
855 2.3698592339648146 -3.2953552099404537 2.141467509361214
856 -0.8308138877242031 -2.3726386257245164 0.940373227763803
857 0.07254461517780059 3.268809179229098 3.1023436114070155
858 2.610296431713551 2.9619192803750165 1.1286463567305982
859 1.617078753204806 2.6915867577614145 -2.3679265690963107
860 -1.5824008077730969 2.9123647930604695 -1.2490851142945407
861 -0.7681245574053807 -0.7001439350665782 -1.3429323959621042
862 -0.13876757745770954 2.06618247924671 -0.9875402613727695
863 0.3688778021251453 0.8334612558328882 1.2560515955403455
864 -2.5014593681786574 3.3075249938049156 3.2528186745966443
865 -1.3331538551409505 -1.9410132825325277 2.369227987614933
866 -0.010029744034161917 -0.41755138860529345 0.5867271317271107
867 1.2277512957074688 -0.6692639065015228 -1.3951278184327767
868 1.5422350972892005 -2.5582285054296228 2.968982589728198
869 -3.4008499713748956 2.0682272818108136 -1.2240659341795368
870 -2.433737250351781 -0.40307882366490616 1.6024695109850913
871 -0.5680167338626709 -0.9503277922508773 1.605299818682815
872 -1.4439665729852953 -2.7008587106962905 0.346870517022844
873 -2.1923684397311156 0.749699784540827 -1.619988281897883
874 1.0170681910366768 1.7804863429980005 0.28640244198876313
875 -1.1357479274261755 0.8429709949497377 1.9100340410590202
876 -1.097201514294303 -1.8536840102556342 2.9229587552876803
877 -1.8045343768941327 -0.22682018716157695 1.9198585481361679
878 -2.07361843358592 3.418164687885844 1.104653711015725
879 -0.22645831145541345 2.358069043454069 -2.029527366795614
880 -2.9260849882763 1.8710402304941827 -0.32939458804945093
881 2.537460633281608 -3.145357622598538 -2.906214876454076
882 -3.233235655459846 2.435314136043763 2.057007236568138
883 -1.6102016456438901 -0.6491175743100285 -1.9102418793506069
884 1.8215096474555803 -1.0284969179123256 2.75065479895767
885 2.0580459970812153 1.9535634292776727 2.497112658453815
886 -2.9914582252884596 -3.3856474138591914 0.23467595197708685
887 1.5058981121178188 2.6687598640434955 1.539921231981757
888 0.13013803488227005 2.342787856923153 -2.7943638710075436
889 1.1357005555893722 2.471749001185763 -1.5249124667337077
890 0.27356026803576994 -2.4856007970050142 -1.341813734118273
891 -2.0995313888033595 -3.017196292275999 -1.2378274158933718
892 1.5809916855179968 -1.7224706566348666 0.5210660008846075
893 -1.946863481688827 2.211663372592182 1.1011550370350334
894 3.2576683568960614 -2.9262710525799522 -2.533012496352465
895 -0.9790863131909974 -2.933682972426633 -2.532468835829507
896 1.2375116226313552 -2.724356661655147 -0.10303625681062142
897 0.5544733183398197 -1.1004152898160338 -1.7788433910442052
898 2.531175554501905 1.952594903552345 0.06050973993717002
899 1.7523646638487966 -0.4698848427176594 -0.05216799547454293
900 -2.6700131249140293 0.9926652194813635 -1.3155626237764766
901 3.0984982928726006 0.21509416434834105 3.2584642689680217
902 -3.3375118849278924 0.8029572717249477 0.7077217352032485
903 0.09693669895925493 -2.0157071181546375 -0.3625576027973509
904 -1.1769703516262033 0.08813481888557978 1.0297229260705651
905 -0.019946700825424813 -0.9949368144491738 -0.702453125973775
906 2.7008667646690405 2.6225210849039033 -0.47633873088060485
907 -3.381955350368301 1.2777167568902537 0.4181309190871909
908 -1.8006648663462417 2.521703329404911 0.652240614378719
909 1.9208429287393214 0.5761834952479952 2.6290254065531626
910 -0.55933245174286 -0.32839214889143 -2.706801755132695
911 -1.3178707994416232 -1.1447616648483432 0.327714583049783
912 1.126959531317492 0.8961480079883856 2.8852150952020703
913 0.5425821297600553 -0.2551920173092734 2.6031179299327865
914 0.018089822500336365 1.5800991561228475 2.7620312443388646
915 -0.5177617402366101 -0.640595690698033 2.902966516695391
916 1.300430805878676 2.8112761982815253 2.2482029263618193
917 0.6088809950825261 -0.20358278216559822 -2.0092306761190306
918 -0.9141239902949172 2.3374755965107137 -2.1083664668694047
919 0.800418990843516 0.8479317775788409 2.2374540059338264
920 -0.10990832619727667 2.6543052656787762 0.8261430899786437
921 -2.7582419699381355 -0.8387757635142795 0.9493344658560517
922 -1.57142518622127 0.5206154290880489 2.99164138397465
923 -3.213241115856791 -0.6309779587649248 -1.5487202484700957
924 1.5370320897703453 -0.036017718838160906 -2.4699320618800082
925 0.3459914140658083 -3.179316812853518 0.7601458117564731
926 2.258923189677838 0.7927563141299608 2.2778392747207308
927 0.416265768562332 1.401998708744776 -0.8278552704566022
928 -1.0388156026336033 -3.301701971277697 -0.7179831826104135
929 -2.2467296064074476 0.6345619624620961 1.0558886315295313
930 -3.1780213584258905 3.047604931637336 1.7408566266154324
931 -0.05246744352590562 -0.8354059719181834 2.2197860331419137
932 0.5347653222540654 -0.13889077324869187 -1.281239155157254
933 -1.3661404010546914 -2.6895325717269656 -3.0744370846086113
934 0.02424156834100453 1.1619243971520858 -0.9861021360886856
935 -3.1433684424289408 -2.8007161583655518 -3.146769864039704
936 2.3712050126613162 -1.4389660784521032 -2.982870749152162
937 2.5832484594286895 -1.7875601313234109 0.03357172954080548
938 -1.1489852878723483 -0.17480287065877506 -2.7545711286067114
939 -1.376011846817867 -2.502014148510175 -0.37283353982722406
940 -0.8670321742561213 -2.0713866963237804 -1.8741239639396186
941 -0.166679711416521 -3.3658532394416096 0.7215506584469504
942 -2.784302444438304 -2.8327888549526703 -2.3776324677697107
943 1.3874675532993543 -1.5514582924536835 2.6335142757219256
944 -1.24265754125451 3.3962545020331345 -0.34250281796280785
945 -3.2307208408308554 3.1775767642637445 -0.765166059377834
946 0.6316750204407608 2.2568553690814332 -0.6344520573205873
947 -3.242114988525978 -1.4648427621342708 -1.887911562447932
948 3.409104259661607 2.3584049394628117 -3.3048276213919294
949 3.4449950324382916 -3.447370674153252 0.9575112204118985
950 -2.558800836872233 1.547382482677811 -0.37144593687618943
951 1.6922972031683148 0.3991566369734332 3.2415420073588144
952 2.9196251377191116 -2.52028298482381 -2.9061686274267373
953 -2.4559282529765083 0.35078163359824777 -0.07471631542253637
954 -1.0008804462443557 -2.4303401026993283 0.05027600744092014
955 2.771634437826906 1.653634400596637 -0.1372156479951539
956 0.5199169835637129 -0.5495580946443012 -3.424549733686771
957 -1.720248980919363 -2.3865871145151005 1.8120742247231822
958 -0.38016996865567776 0.34901510831528687 -2.081888851988727
959 2.8846059839537923 -2.827320067799388 -0.43288493855019455
960 0.2719626253413854 -1.6543636673641924 3.2789965393183893
961 2.6338366903325645 -2.7978135750817272 -2.807983927572209
962 0.6066575000183967 -2.970341957306438 -2.717329565828563
963 1.6795311470913958 0.3818908318785211 -3.195960807766557
964 -0.8171538535144863 -1.1716912897684941 -2.432700669956175
965 3.2305928594950055 -1.2176606186136265 0.07969046617330093
966 -1.1502797417824657 -1.1685763173899912 1.4757087807794471
967 0.5413685496107253 0.11027983352200572 -0.4970576505875597
968 1.3510892852877379 2.981689381192555 1.210916067273311
969 0.1832091369715444 1.5379235849417219 -0.17093729594951965
970 1.2579466446611198 1.6125393892281095 1.2493756349735952
971 2.9476474365967817 -2.1574099484053417 -1.239686729274384
972 -1.9856704150019437 0.5297556916188536 -2.5641691521741357
973 1.3445392808902095 -3.29366742498813 2.825251308914277
974 3.154079127386412 0.0670759103356051 0.04857507707834507
975 1.866915728181895 0.8340097600801922 -3.366646467091249
976 2.5613263946884612 -3.4343651228170007 -1.9207306244266993
977 -1.44521700797935 -2.9548062351558944 2.3254870974621054
978 -1.568496347566689 1.3006753818632415 -1.2757096780393113
979 1.598623364215708 -2.9771391463354147 0.6942904743161382
980 2.7409825960523007 -1.3797392633733456 2.7814705635791555
981 0.9257664750411579 -3.251765741765087 1.154984937708589
982 1.3645229438667397 0.3779414917259879 -0.3654760160039879
983 -1.7818098008104541 1.0663840066249337 -1.1300078651012602
984 0.47960978156227685 0.23633627396145696 0.39796791262439457
985 -1.5657952831964264 -1.7474670618996022 2.569455602293815
986 1.7531160244318877 -1.683176469789629 -3.449165150866217
987 -0.1892971035826838 -2.8576173315492595 2.4931342591779098
988 -0.6493701200419701 2.0427964528031817 0.4436682939169151
989 -1.6776834625353951 0.1795195904125997 0.5371848552386097
990 -0.9447528219618508 -0.309167187818057 2.0547132222916726
991 1.3585272510294053 3.41889907770885 -0.3938654807888243
992 -1.3949357654279413 -2.203908445272844 -0.7003180715797905
993 -2.9395008768645874 -2.1472561196359288 3.3188060333354232
994 0.4036687014232265 -2.6957744920526148 2.7488795788188973
995 -0.09526098111970771 -0.313127062990475 -2.2125685386921234
996 0.41442967154205745 -1.7744660168542556 -1.3561895405890891
997 -1.4890541699734214 0.7893907990622797 1.0792633204998394
998 2.1209256474166582 -0.09593783426193936 0.8755411472334721
999 -3.0096305126082936 2.6244209108988574 -3.149485601381988
1000 -1.7479656578711293 2.387127557735155 1.9076090077451031
1001 -0.33050958005986947 -2.4140750600394143 -3.4113309489073522
1002 -1.0146763464385737 1.0059174333709897 -0.04814693404102448
1003 2.62562612638742 -2.378672330357369 3.3424665664962316
1004 -3.334609930071379 1.1311812303871156 1.3663295604160186
1005 3.1122018625927574 2.147742824264186 -0.5023073131944775
1006 3.089168006813958 2.5771792681211574 -1.2587613093037382
1007 2.7009732879322033 -2.5078469046481007 -1.514103320410453
1008 2.004566210987137 2.810380106054801 1.028989818883813
1009 1.5001297584997408 2.609903234545698 1.9972889784418573
1010 -1.7928173110199024 2.92218070196293 -2.3700115555585315
1011 -2.021245910631073 -2.207014622891706 2.4597904765085072
1012 -0.48126308811125634 -3.150447564764794 1.5162852912763602
1013 -2.63896240904607 -3.1114931766230316 -1.244238196248668
1014 -2.354426642878375 -3.1256624109801696 2.83809653716419
1015 -2.4187128295517675 2.967000514794644 -3.440204908589552
1016 -1.850003577504042 -3.1501827487189096 -0.9536558990855811
1017 2.365587932776308 1.0446349237529686 0.13049340329614334
1018 1.4480342366351924 -0.9507690771309206 1.109329313331384
1019 2.228640598899988 -2.9553203209228154 0.6059520863550749
1020 -0.9315465283837389 0.1864658262860742 -0.36940486942620265
1021 1.3929954674057816 1.3870359382752613 -3.1617775042191796
1022 -0.7168424364016243 3.0311090563468603 1.3228595611064091
1023 -0.8141068125168813 1.5949954422056296 -2.9421540832515167
1024 1.7585093713035882 -1.0063537531080855 1.1927840927597615
1025 -0.0498896765939367 0.9648960124518583 2.5752790319259145
1026 2.737635221586311 -2.2734261249471235 0.5150956707289777
1027 1.5203646957192933 -3.336730593347825 -1.184154064519588
1028 -2.9432778087901976 -3.339810731517109 2.4135995126304732
1029 -1.6938919499600806 -2.329054088286509 -0.12898024666908167
1030 0.5182176000991325 -1.4282780896915828 -3.2881599630791367
1031 -0.17055511951301713 0.7072076181261477 -2.9532684389945434
1032 1.818553183780976 -2.272850582211953 3.2675379472082646
1033 -3.09170011900457 0.5007364427652006 1.0793329856955736
1034 3.291788592123112 3.0347555783261044 0.32361420442158395
1035 1.418940662555596 1.4435489883066779 -1.483458500908203
1036 -2.000787930056904 2.5157456838128383 -2.5880462220498717
1037 1.4434853446015283 -1.276248277999883 -1.8630655962358895
1038 -1.1677145003654459 3.3957285406013993 -2.2616321275961497
1039 -0.6334766873982529 -0.7437555722238319 -0.7290439028881768
1040 -1.2852345292425684 0.6373781611610255 -0.05719115031987585
1041 2.8749815455733354 1.511651436787197 1.1981549773834967
1042 0.24941003853308988 -0.0569441097932528 -1.223856693666818
1043 1.0829680469122196 2.046648277150667 2.894939840249373
1044 -2.11053522513007 -1.0996526497683983 -2.802561057507737
1045 1.7796765175953382 1.7939458218826982 -1.8833835696507177
1046 3.383329993517508 -1.7460087850464325 -0.6041032206361117
1047 1.6193565991745227 -0.5488828704468893 1.0032388786723927
1048 -2.212245015471255 -1.1220939501567884 0.6652493594147889
1049 -0.9037224032527167 -2.781367297208208 -3.2235706488528573
1050 -1.168553263907944 3.1400386289129614 -1.8844998080210236
1051 -1.5358793491384852 2.758914555175909 1.1355353896053084
1052 -0.2509217716885086 -0.4777431554304707 -0.6334447624642656
1053 -0.15391928540376215 -3.4432119226846805 1.6466024173168294
1054 0.6583613150836338 0.9276186518759484 -1.081917548965783
1055 -0.9888703334358371 -1.2768038625282179 2.6406341831223514
1056 0.7696500875631587 2.7678098599638363 -1.6165754575331956
1057 3.0107715000380986 -0.09906014151510109 -3.15614554188638
1058 -2.9503141385810494 2.973274997323082 -1.7955441561967895
1059 -1.3304054234650071 2.7276510538206598 1.6634081008259078
1060 -0.6373993628966015 2.5348820624170827 0.6846631967333205
1061 0.11153115301622016 1.0486256434268606 -2.0045257729771877
1062 2.033433905732458 -3.380291930538616 0.2751259648904785
1063 3.1202267407698567 -1.3922191239850112 0.6535874694584092
1064 -3.125381641069493 1.913161927729937 1.6981145523842924
1065 1.3347562016749837 -1.6209724303760962 -3.012250231876341
1066 0.17229993535236732 -1.8747117165839737 2.4662266453271418
1067 -3.0398453299177497 0.015412959159061953 -3.162586154814046
1068 -0.4664240372542801 -2.8958808589330465 3.0235455589160565
1069 0.10598266194375827 -2.2357056554406185 -2.221784898936157
1070 -2.2294385320892505 0.5760601398010264 0.5557904093505472
1071 0.3270938281713906 -2.438637157578604 -0.9842358777802178
1072 0.5400170538370515 -1.8421962140004506 2.2186251570963464
1073 1.7860350450254532 -2.0695552367747867 1.2243987818549722
1074 -1.5960545158145563 1.8177413670114067 -3.352516056651075
1075 -2.173521911138637 -0.8490999444253642 0.44843773170947554
1076 2.354508308115968 1.688404042938107 2.896987407893642
1077 -2.3005881955933978 2.045539547681044 -1.8980674086301461
1078 -1.1832951599027377 -2.402350781753283 -0.14111105297093662
1079 -2.6638141825710018 1.367722075685048 -2.4967558016324185
1080 -0.6348118247256322 -2.4212952128753082 -0.18775913809723496
1081 2.282129083072582 3.2547560814616197 2.2158815336950033
1082 -2.801816620119794 0.3967528283890861 -2.555746502068503
1083 -2.4307743380461617 0.9496569821140022 2.518961664490833
1084 -2.5725508586500903 -1.1659859110123239 -3.4322625445296553
1085 0.1439241799510095 -1.257424073079091 3.0836451982975346
1086 -0.22223139012583545 -2.7278133792504358 -2.83445309252259
1087 -1.3355115146017875 -0.041968999589525595 1.3174594530013892
1088 -1.6045655775859968 -2.813584354827982 2.039995345110951
1089 3.140526522019726 0.6716851392030834 2.1217174988813823
1090 -0.5754252924289173 -0.8932910914666043 -1.7567919218413082
1091 -0.5678231234651074 2.3036821595985746 -2.5768938190615827
1092 2.022901583250772 -0.4587195682489724 0.7435792142232999
1093 0.6522973911539139 2.821816268144002 -0.5431592069842008
1094 1.6411319631988779 -1.3676768106266337 -2.1060203285759242
1095 -1.292261551863818 0.18618501595946524 1.8317204447929747
1096 -2.3799639854810577 -3.248102174903563 0.4422129174974856
1097 1.5446229502652722 2.9708940957198737 -0.28713056008465904
1098 0.03641786311201709 -1.8122235925764103 0.7570468626630323
1099 -1.3801829090163138 -3.398011782422028 0.04786772252050063
1100 -3.100887851967588 -1.6619930488418933 -0.3753374327118312
1101 -1.4257330446183898 -0.7609442837899311 1.0498686942888322
1102 -0.5445394597736773 -0.8479371702070496 -0.7709294016909491
1103 0.657043393441854 -0.46057696089830763 -2.7908011490044604
1104 -1.2719710004386509 2.0949636153811126 -1.7122983981372488
1105 -0.20125337145016906 -3.106181647764436 -1.9425308258319827
1106 -1.0438649290593847 1.8034269466093493 -1.7103231802012762
1107 -1.6072878892447582 -0.12254508886268939 -3.3875006211326903
1108 -1.8992169029112558 0.20599395680748844 2.566774547693656
1109 -1.783141799223986 -0.558399908988652 0.22657499864568692
1110 -3.1534395314918595 0.952101799608731 2.084782457163598
1111 1.520731175190474 2.8226898787865355 0.2982059150068172
1112 -3.4552066456016344 2.0285940600429857 -2.951994726408372
1113 2.4637271989476495 3.343616763417089 0.8251968750341857
1114 2.1008368791667937 1.3866533936238643 -2.670500986710615
1115 -0.23284960089597614 -1.249765481010923 0.3082170907767768
1116 -1.2942828448011054 0.8178369866629611 1.6457296510227843
1117 -0.16881284185612414 2.306850303372944 2.225167281982214
1118 1.0082564251858734 -0.9840683671467494 2.0252243738792646
1119 -2.890530395106324 -2.6642015595351496 0.500911937425843
1120 -1.5616888297708937 -1.9373490743528765 1.6672346011641368
1121 1.3882515598755425 -2.2160687135360906 2.5431874341789227
1122 3.18910082386531 0.416848380431199 2.996381939892567
1123 0.333532987659482 1.9737492557085963 2.645778279609241
1124 -2.7426784132917983 -2.2488492029688185 -1.6628450521699247
1125 0.4765954767934867 -1.9801526603382364 2.0206301931841004
1126 2.94352834372555 -2.179959099811007 0.41547164029901124
1127 1.9497678554877442 2.268114208319873 1.7338382376186148
1128 -0.3585552628788938 -3.169961998793546 -1.1896971736761097
1129 0.7835492270850051 1.0666957033481714 -2.8120255111857912
1130 1.886806441925166 2.943420913403297 1.6582939722649634
1131 3.3786000693006004 1.8066085838460177 3.318522541718957
1132 2.5597295770063413 -2.5892620120573904 0.4416722121942379
1133 -0.6223066078776697 0.1327501446932055 -3.477283840825185
1134 -2.1722150433721117 0.3533131869526232 0.9488740703403649
1135 -2.388588144832139 -2.859554444231295 -2.3811006936415398
1136 -1.5373688862219657 -1.5136217862613466 1.846862284818903
1137 2.9635802829123237 2.639168082460354 2.4815702588602595
1138 -1.2257981997212388 3.002324236661608 1.9857082587350472
1139 -2.6502481643096196 0.9885433679753749 -1.3844761495480913
1140 0.6265177302030581 -1.3732679735248212 0.8131674711185904
1141 0.6230750023665098 3.0511455394445024 -1.0384882201826189
1142 2.2538888037085227 -0.7717149896980161 -0.03506919090898074
1143 0.9607117934315652 2.7350246686057447 1.019071270076697
1144 0.8959873222156989 1.4614392890128869 1.6085331061989876
1145 -2.4677390769827414 2.546692293445751 -1.5212136370433118
1146 0.15345061267538557 -0.32287216585992984 0.09839489929414531
1147 1.783426411033082 2.532064568191082 1.7759690551071303
1148 1.8222379657039571 -2.6290610645129595 2.847331524638243
1149 0.5382232290271879 2.612512574310281 -2.5924689129887972
1150 3.2390679429972513 2.8089783328735938 -1.7684986170535655
1151 3.3781801767307433 1.670178635785674 1.0935662326253568
1152 0.285313167157508 1.2656494829781244 -1.6961119894587344
1153 1.9362428203551103 3.336096360903118 -0.9975276535860601
1154 -1.3923157617353075 0.30626677559267756 -0.7998516729311475
1155 -0.9902561929039234 3.1138739514966214 1.2908531619891819
1156 1.0692921602207603 0.5792682805566721 -0.8906236988262228
1157 2.8799932404826913 2.6947540958597433 2.4205935347611685
1158 -1.7973380495100617 3.0698781067726264 2.368069554379116
1159 1.2822962822061388 2.5353336696185367 1.3541209580358444
1160 -1.3773486083881408 2.713852034048819 -1.8734695777472783
1161 -3.009819923822343 -0.5590133636155106 -3.1630524414329293
1162 -1.3825987672914988 -2.477114972229817 2.8653537918569243
1163 -1.0725284622737363 -2.4159671128719444 -0.6075405375523828
1164 -0.785993024290934 -3.4251745184245794 0.2902589811524282
1165 1.3947655344406096 3.4537346984725015 -3.171467556856246
1166 2.5193502573313085 -3.0154493835932343 0.43964892118037424
1167 -0.024236310196240004 3.0373476991823827 2.365162594663048
1168 0.8699556490225693 -0.04851023500904593 2.110187333734663
1169 -0.583185654271619 0.17169241546734193 0.4792405475056638
1170 1.0045978792974244 -0.18690885247051808 1.4013267675660368
1171 3.0503821822130615 1.2500457134293315 -0.9618968015676475
1172 2.274829387452716 -1.7792521514770467 1.2516995366084005
1173 0.4812353715470999 -0.1251907452804027 0.5918832811275421
1174 -2.0820038872401865 0.8979345913820116 -1.691200175819278
1175 1.440640976245573 -0.636615921772862 0.5838981066656406
1176 2.1252584023507097 -3.4030748665718504 -1.9989339010840856
1177 -0.8738378164380979 1.1981612013420835 -0.9761277861591132
1178 -1.6013765410205865 2.339621885251385 -0.6392139700989445
1179 -0.22712937191905574 -1.999739695446209 -1.9055586102217619
1180 -2.5152397865021117 0.0832818582694151 2.514467532646183
1181 -1.9776755627594624 3.40585233376808 1.7920522599077613
1182 2.2251865819307817 1.279356739471835 0.2985002735816967
1183 1.4920779224023786 -1.2239210565973542 -1.3289236232675838
1184 0.002722999051889413 -0.6240370210170826 -2.5443555706321277
1185 2.157589527584076 0.17119799464117866 -0.9097858042777426
1186 -0.825107300453974 -3.3518890045185215 0.11449491049694925
1187 2.468840228566477 -0.6908525889422494 2.561223497794094
1188 1.8102251683828767 3.0929885662292067 3.22611112299716
1189 -0.3611828076992519 1.1138235202150912 0.3048825877911856
1190 -1.9716387353262845 1.0562439001298163 1.4628341099043685
1191 -1.3013861681659464 -0.9157427560715593 1.5368271072764368
1192 -3.4278845726602154 -2.456525740583497 2.8733463946519042
1193 1.7657617157312944 3.231822993196362 -2.5817868958990773
1194 2.8334128579252953 1.857869963525828 -0.21952837197023356
1195 1.2308598420138857 3.131142550676036 0.854611681818616
1196 -1.8152275896580892 -0.009330798990681222 3.1320435082691738
1197 -3.434963574276793 3.139374613280603 0.7967984060139383
1198 2.3363767299950284 1.4619673999882938 -3.3569146772126612
1199 0.02661151919549111 -0.5305384327164646 -2.113497495290942
1200 -2.388322007477551 1.6134160743304082 2.1424132022275995
1201 1.2220371705322197 0.18329690261730047 1.7361308177917316
1202 -3.351387134543833 2.905589076909282 2.5234295828598796
1203 3.312708434543359 1.6786189849825297 -2.3842787601220032
1204 0.4145035649256442 -0.5325399189140108 -1.1489536497590307
1205 0.410212821162966 -3.440025602858874 -0.1665560586541493
1206 -1.2343473409649832 -2.269003176191866 -1.276153808567124
1207 1.0548260568022052 -0.3278753012670471 -0.94084820567097
1208 3.0826524724600803 -3.1188395144401433 -0.1414573647595105
1209 -1.5635719395993917 1.0167464057702105 2.0160758676712303
1210 2.526728657832066 3.3413517824823624 -2.6388153272244868
1211 -0.5862150799683084 -2.298933954025148 0.8886897157347465
1212 3.436521608628685 -0.5254106978985741 1.0198879065324618
1213 0.7797872871791276 0.126111967109977 2.6068415679997727
1214 0.31493455250102415 0.8215508567136511 1.7784033311365652
1215 1.2108883511909514 -0.33588898054720573 2.787333603468033
1216 2.5760152578636686 1.2167016890571172 -0.7978520687928281
1217 -1.9864318078630707 1.574434821726804 -2.4692787939660095
1218 -2.5159437024346216 2.0939757276492172 2.4463859125026226
1219 2.611477291747588 2.046520451813034 0.7465793906570717
1220 2.631331398794354 -3.3800216165594423 -2.1024114606720357
1221 -2.924358953048352 3.197696412464829 -1.7287579471064813
1222 -0.00871395582253343 0.9347876636195956 1.7556867763635307
1223 0.0524983253914123 -1.4553685307718087 -1.8307079449246177
1224 2.852382152209883 2.322393221821867 0.4682276586029804
1225 2.7699948774195686 1.780360528627761 -1.8281596786264902
1226 -2.763837489932342 2.0071823233966333 -2.942419917671914
1227 -2.7093697323160595 -3.0069104003129885 -1.3804530320293216
1228 -0.9639908672140957 1.630116513989873 -0.9221808562068461
1229 -1.5276108667542545 3.3132085161815024 1.8859166283527586
1230 1.8830070703105204 1.3737224478888177 1.4616371975809317
1231 -0.6557781675441429 -1.846690813137203 2.8056466746189095
1232 -1.067899218557358 -0.7400171806172207 -0.1842364324116536
1233 -0.7980967212054308 0.7691256457685635 -0.40264888362035256
1234 3.2379112629124953 -2.7899349045467647 -1.8845532436786299
1235 -2.43397244652377 2.5646835872547915 3.2681690493630806
1236 0.5945293234431331 0.8125285483776505 2.3959655458128117
1237 -0.4776798922686722 1.7066891732439542 -1.216528850948856
1238 -0.3306599159860298 1.9799335025206743 2.7738473471345046
1239 -2.624951786519365 -2.9389124705736487 -0.455486036724146
1240 1.0540516603298098 0.4982521342537484 0.8497866749382973
1241 0.13933545529398095 -2.2523701748395633 1.4465209780530424
1242 1.3519857481254396 -2.7135731261618177 1.197528467582103
1243 -3.3596357199526063 2.685703582416972 2.564112519938831
1244 1.9210890402102856 -2.2081254857914803 -2.36907333292038
1245 -0.09394697828618144 1.0092051394695358 -0.15730632408587908
1246 1.9704431301123173 -3.198473326913327 -2.8509802087071514
1247 -2.278574287007436 -1.684740419112065 -2.051643518893621
1248 -0.9142117284155572 0.8628610029207987 -2.913121192691173
1249 -1.6557166022074026 2.5792040254654123 -1.8321869921060707
1250 -1.2438504058615267 -2.810812001019091 0.19001449638217605
1251 -1.683102929424278 -0.9363022550493386 2.028551464645298
1252 -2.337751678695261 0.3022816730921289 1.4295753357251848
1253 0.29545855888744077 -1.2383635504852646 -1.839261823543471
1254 -2.498566324099134 -3.434718949951666 -0.9467988032090542
1255 -0.039177720582610355 1.06242438282344 1.5276396385751594
1256 1.334531856347887 1.5291601306489175 -2.1235196508139604
1257 2.1869219556048782 1.7912981190478459 2.0616061997562696
1258 -0.44317655163970227 0.2651593471450376 0.3780457614020847
1259 2.7171283268084663 -0.8975829792892578 2.237198651747344
1260 2.5190583351207705 -1.0010815025677404 -0.16565923165087718
1261 -0.0027848440530556444 -3.2251979298404994 -2.165590825716665
1262 1.0085416667306968 -3.1107181968411837 -2.0605619498065697
1263 1.4492183354869048 -1.8117330970039087 2.080101476154703
1264 -1.0247674323807792 -2.498056632357199 -3.065904292143049
1265 -1.8999094072483504 2.408482510334283 0.9436647173170268
1266 0.026973747919890788 -1.3632647352751968 2.8406853676395256
1267 -0.4324658718192214 0.34123877797349406 -1.2852879092875826
1268 -0.20650633410614236 -1.42356685071337 -0.23411566517856502
1269 -1.7131205365756283 -0.2307990795112178 -2.6670449104334533
1270 2.4877886010556844 -0.5779619455804885 -3.279463744063133
1271 0.6520039381589019 -2.110248219022591 2.447189023269046
1272 2.2679509959471282 0.2675978642531417 -0.1620240439221487
1273 -1.1925249491549879 1.6487841470519633 1.3930267091264883
1274 1.965389459481334 1.8336425341450981 0.9116299648486385
1275 1.4338379476766667 2.6768589707654145 -0.7524815634976881
1276 -0.721841401629564 2.0619541528181204 -2.845977811299286
1277 -1.2517347354649868 3.091349824388725 3.366594904169582
1278 0.7895018807083406 -2.6976219523277423 -0.6185673710959485
1279 0.7450363945304361 -2.592965002258851 0.49185615808448124
1280 -1.5066738022029986 2.2465242786926387 -1.251476383337018
1281 0.5660434869132238 -0.420317335678323 2.544385990081478
1282 2.5711164575035927 1.9310177197200462 -2.710586305530929
1283 -2.6384690807166162 -1.740828417024271 3.413888445375005
1284 -0.22896553661611754 1.7433626087291938 -0.7887967954160187
1285 -2.049950581663973 -0.19710752516825805 3.009846575103914
1286 -1.7495906419875704 2.758837406861125 -0.16109633696765702
1287 0.5580368879140951 3.426862756734033 1.9583028982274278
1288 0.4350575111841626 -1.1175888288909672 0.2550732651455245
1289 -1.7116831428453876 3.1653639240276052 1.5947622979793257
1290 1.3902392754582316 -3.4120552829765307 -0.6772939967081043
1291 3.3873794469746383 -2.893889266437258 1.8927182679361738
1292 -1.4538125013769665 -2.084469824594469 -0.29971765617710644
1293 3.02693251703057 1.6116779829662131 0.6131295383609059
1294 2.0479132834694305 -2.250046879073139 -1.0300739168807498
1295 -1.6617095460780924 -1.2543409796900964 -0.46444000117311646
1296 2.8202695843269496 2.4214137493354078 -3.1835445439987007
1297 0.24185708670714667 -2.4267249247407023 -1.47576830378038
1298 2.675674673585265 1.3820191257117067 2.4898118961188733
1299 -1.1226902649637256 -1.1594391518778804 2.7885511249845454
1300 2.2767859652678526 3.42213329336382 -1.4020387560276333
1301 3.0420829906809304 0.1796231036700818 2.27693217373661
1302 -0.9879715244695093 -0.011930512537950782 0.9628847605438585
1303 -2.2148699950191055 3.2048061038930817 0.11184983738868826
1304 -0.46267666074848246 -2.200064187834717 1.6237764291787786
1305 -2.339275276538963 2.3779906081442226 0.5983956507859387
1306 -3.3598786151648232 -1.3966362493138598 2.5427112764172097
1307 2.1070217963013356 1.525988570808144 -0.062290106389655236
1308 0.22528056324517368 2.7205286649380334 -0.3906057993256167
1309 -1.9751052016016437 -1.8390190015365877 0.2523992489312413
1310 1.791057658456488 -0.7029449838332722 0.024772296978806466
1311 3.2144500604491273 -2.622209714717942 0.3459914793465124
1312 -3.1249457187691645 2.3190035558092426 -1.1362532272749473
1313 -0.6756251685282452 -3.221421623119496 -0.9835440276520666
1314 -1.6734667894050324 1.8421001570362285 -2.275896048224087
1315 1.8574658926898922 1.1868275373585553 2.3187069017521424
1316 2.12873040523181 -0.41475823224107666 -0.9136251696509609
1317 -3.066980866297227 0.7149482828010496 2.5714022283985183
1318 -0.13346140151071711 1.277923464357506 -3.028441152340674
1319 -2.041025840696287 -2.454484499107486 2.576969514281616
1320 -3.4539501938189208 2.3836657514900046 -0.9093327661956432
1321 -0.1316007281485513 -2.0532617054101356 -1.7583985139851328
1322 0.11300060943010558 -1.937038302545732 -0.03032810969028637
1323 -2.4043898464247677 1.4687213564410206 -0.5744401528370452
1324 1.8758150033413432 -1.8513710529241414 0.27260578445906875
1325 2.2877810712890048 1.3578594053452886 -2.1617488370622633
1326 3.2945047194125983 0.23977561795864258 2.837386685010625
1327 -0.5077890274407493 0.8738809044277249 2.3600471222344703
1328 -2.05733577562509 0.252618094019206 -2.7816613183160133
1329 0.08566496245878276 2.319942777485683 0.8078365415809775
1330 0.9953004197033121 2.7268906406615954 2.7245530835124208
1331 -0.6291036583303669 -3.374005237184132 2.1250140706390606
1332 -0.5355795494355401 -2.51422253496917 2.061949449975896
1333 -1.5948745839193164 0.8867433096907874 -2.9240507746914317
1334 1.5098195049799135 -0.6314350381180354 -2.310148462662084
1335 0.595607736934763 -1.8246893184076487 -1.13327297682097
1336 0.9685128967002039 2.354782307389474 -1.9040646161384343
1337 1.832205351369849 -1.204117542783129 -0.685081677413934
1338 -2.927489652223135 -0.9750333033477003 1.6220432266567886
1339 3.1343123040589997 0.03989097634682864 -0.08211521876713201
1340 -0.7815684351792606 1.7318499460887447 -0.5023925343831714
1341 1.656855488434097 -0.08915817674357018 -2.8307309916854857
1342 -1.0645030072325927 0.9744707664023459 -2.598738687146464
1343 1.6735407781613258 -3.408377146269519 -1.1451906238018528
1344 1.3690498216083162 0.33342648547602666 -1.0931029169948814
1345 -2.122330012960424 1.3657780180755572 -0.567009676659836
1346 2.187147590013636 -1.3371688464790608 -1.4907979421384217
1347 -0.7820961626528731 -0.2169612293770045 1.522454668531464
1348 -2.760805985591472 -2.407960007908264 2.474487589806353
1349 -2.612240938587338 3.0711745168641658 3.39472054227871
1350 2.889197380232566 -1.787472019369089 1.5144693458251712
1351 1.443964760517142 -0.13940945781444342 -3.0780661782037813
1352 1.3164057761602377 1.3951272524985308 1.3355556490534026
1353 -1.9727953670704783 2.3788475960787214 1.1603829188288663
1354 2.1192334763639784 -0.8534388224973117 -3.268041288134707
1355 -1.1505045318427358 1.9740816131881764 1.3110059653706212
1356 0.6629393887034281 1.7435527708333105 2.4072576884759966
1357 2.450341062364127 -0.17463764261671075 0.02241657436316693
1358 -1.77465757291005 -3.298802194969192 -0.42637408034004626
1359 -1.031315013304782 -1.8119776454633578 -2.0300244818024518
1360 2.5603120388873344 0.27947034825798667 -1.3216151071064437
1361 -1.7357264043517306 0.47112725213421014 1.7283881453721401
1362 -1.9890974933871122 -1.7035149396028877 0.7573963745968334
1363 -2.426640311163873 1.223202057365239 -2.277433490804843
1364 -3.2202181414457685 -0.24187098257240108 -1.893498874214653
1365 -0.5276864476313677 -1.3482455094742822 -0.7972521172963819
1366 1.1762485193728736 -1.1883665697766153 1.0547516486125748
1367 -1.5251798230970874 2.6475324209569924 -2.2737865724329867
1368 2.7079031460231584 3.2310064534217218 -2.4639619412001488
1369 -3.124757422610754 -1.4370073833203365 2.2541004362943458
1370 2.8384678015244207 -3.152851121978216 2.643926046509258
1371 0.7303622429996993 -0.07606873197273707 2.621728592030812
1372 1.3757863947948274 2.823740454559669 -2.806880486560105
1373 -1.6099228301711535 -2.8837703975625266 -1.0570643929007695
1374 1.4758552389658879 2.9496173678187176 1.9915362291573024
1375 -1.5894119070131134 2.7287959162492763 0.1429975179792848
1376 -2.9371489634852606 2.7778296790263415 0.6896161610821419
1377 0.307549281195007 1.2699765401712293 1.8216935196678057
1378 2.115117274258375 -0.8274028759984722 -1.686270315036549
1379 1.2483574691095352 -0.3765312148726702 -2.0576602978842464
1380 1.7723508792070186 3.244621953082711 -2.011506765714982
1381 2.355865011779557 -3.192295377265169 -2.8287475751901408
1382 -2.33274433765922 1.412208783369819 -2.2447428858137215
1383 -0.5248734651911855 -2.5153809520914665 3.354546296159923
1384 -1.0110232050249937 0.11792490956894457 3.421054946632115
1385 2.5664450414806326 -0.4537221692552523 1.6864104192218392
1386 -1.596884600614763 1.7079150770139753 -1.3748776088182306
1387 2.772988885597586 -3.264979811728327 0.5286542187621273
1388 1.0156338620980887 -1.564166707244073 -3.3356789002132117
1389 -2.940317075032587 -2.0236897821300017 -3.0338060395119752
1390 -2.2395263727683705 -2.8733707892606772 0.7115404978287995
1391 1.9925398847540108 1.3843448385062482 0.053839992744032145
1392 0.3851951653870274 -1.7487933432359617 1.040758602714334
1393 -1.4023501345297802 -2.244529416196289 1.732766498347292
1394 2.3908362245978556 3.22970268267389 3.3063809941441504
1395 -0.8028307801517706 -2.6684538564372495 -1.7603973607879755
1396 1.1219047617443911 -1.01091052465341 0.7348739394086187
1397 -0.3224624748922078 1.3402364956255852 -0.7597001339858418
1398 2.528324927654479 2.487040793636056 -0.5818222755611021
1399 2.377158903803047 1.738219711088251 2.7436807092521778
1400 2.4964963670206783 0.43866668376572504 2.89926898575477
1401 1.4423685487034035 0.715876482829277 -2.590453317792457
1402 2.5116540401921226 -0.8723858446734782 -3.3582372202122004
1403 -1.4392552534394791 0.35453968692291365 0.8005456503888655
1404 3.029972677554802 -2.6579798745688947 1.2582040622048827
1405 -0.9284745049835194 3.373031799013514 -3.087021950589783
1406 3.052237702471283 -2.167747674341993 -1.9682347081173208
1407 2.955367334166104 3.0182279755132146 -0.6276273302846002
1408 0.7298007286957184 -2.592735165443873 -2.5659809661185964
1409 -1.4237997895132286 -2.8722480990366512 -1.1815183275852663
1410 -0.168673994870279 -2.280252879064025 -3.490889195413492
1411 -2.454161982287176 2.3536752150535625 0.2511479148027269
1412 1.5219983811369548 3.358506800676513 1.9366920468048143
1413 -2.9018897247057485 0.19927112200879343 0.3073616626310898
1414 -1.8300547422913225 -0.06392405837489999 -0.8838764552662521
1415 -1.3710602972361703 -2.32977401139056 1.612681090612975
1416 -1.9596097664757501 2.5266936384494882 1.475911044137669
1417 -2.979895662296863 -2.8333764731603126 1.5876772634605685
1418 -0.03595983114689431 -0.22014365939889513 3.400989078917981
1419 -2.4867789001477756 0.8967901414595262 -0.16385660241326
1420 2.6111868584263696 -2.8347923778992428 -1.447320263124809
1421 3.273285297636739 -3.4391180184691303 1.2458058326894819
1422 -1.6843837641866337 -1.7011786853430535 -1.501405121592237
1423 0.881355069061691 -2.2381828965618573 -2.332549582375061
1424 -2.1819697080047966 2.503572070331683 0.4311662063146874
1425 2.741568886505831 1.553339915571409 2.8652660762952142
1426 -2.546763907942434 3.151617273198295 -1.061950563483259
1427 2.402439941521521 -2.4470567138882466 2.843075170351611
1428 -1.7912785310169224 1.1016383178897917 3.1293213126277624
1429 -0.7419744047166704 2.801090471186379 -2.846404996848648
1430 -1.5107377900558714 3.150125170842307 1.5431030335763374
1431 -1.7589583533095736 -2.4287883642029384 -1.5524729778874962
1432 0.751249033366126 -1.9877111938877776 -0.4429626502701534
1433 -3.0072308870939413 1.430700089396732 -2.8930638006889686
1434 3.255056049020952 1.6136018052163108 -1.656712271943214
1435 -0.2603343559431757 0.5011561677544427 1.2129464063411637
1436 -0.29640451732398454 3.291947511853921 -2.4918549548552043
1437 -1.314733722535316 3.1351585846910717 -0.8549493628606368
1438 0.35726861627252754 -0.5024001100437795 0.1993874639346573
1439 -3.327840166254768 -2.741374353979814 -2.3705077424265717
1440 -3.439954128246886 2.311587720377013 -1.2015188130774892
1441 2.7976855407033896 -3.4305658607742955 -0.3528737345295589
1442 2.4036007337767797 3.2209697731710736 1.8671649246073578
1443 -1.8451764694206145 1.8512736005290205 -0.3533296827135106
1444 1.6611840796343795 3.454429391025718 1.5835257115130805
1445 -0.6040486771948967 2.4827942943787327 -2.7456905580221838
1446 2.5449440230383495 -1.9447065047176926 2.5835829833920827
1447 -3.0326464308157624 3.355334116111989 -2.9416861143810644
1448 2.702957703465837 3.16140707497439 -2.621659477572664
1449 -2.9174378703808133 1.8683567556432026 3.0143749062850644
1450 -1.7696776893134165 -2.6503522688011834 -2.0380107971016237
1451 -0.1723041970756786 -1.0067210833731635 1.9397688011347352
1452 0.36418898349974377 -1.8437641723668559 -3.371937686468255
1453 -3.3197439921936307 1.8376380943206325 -1.1420349003293007
1454 -0.9583415635102349 -0.3118987647512661 -2.3306734529237643
1455 1.6673200857879507 2.771717711023068 1.776337033135743
1456 1.0861402190667826 -0.004290109412037482 -2.11824489945519
1457 0.8705098864605668 2.3458539118752757 0.29189039456365945
1458 1.131112842861449 1.4938103918913042 -1.0659942257410213
1459 -3.273051362850492 -2.3596505188858607 -2.2310582881529304
1460 1.0889117929812684 -1.867378643417167 1.1405068361624624
1461 0.2557268319443893 2.29883565083613 -0.9837129070179392
1462 2.408882181914785 2.017110472639429 -2.176922958915719
1463 -2.59160022424213 -2.9762676336732863 1.5003948396339872
1464 0.1976913055703159 2.7150746506606014 -2.087065604136826
1465 -1.0726136866851343 3.0723706782975335 2.7364923322792585
1466 -0.6665793666789495 -3.4441283598427397 0.08545204888994754
1467 -1.2052216526384756 2.7971273797552136 -0.24703794506213678
1468 2.564664613451944 -2.694558153268528 2.4297721023535677
1469 0.21134905810549112 -3.043030590953111 0.5694965507886204
1470 2.3029653511059593 0.49398476798701635 -1.664793434648393
1471 2.3336535288699207 -2.782647068478192 2.9501315106774517
1472 -1.8785297945170223 1.8590010617849964 -1.9712733507478957
1473 0.32983195686214783 2.056864906755963 1.5882217780001278
1474 2.1949915616929543 -0.99692182940578 0.5389228660352001
1475 0.5831767421862104 -3.1312838511839005 -1.672290810941171
1476 0.8979306998346124 -0.4797354375849478 0.4857914349241303
1477 0.37409114485622846 -1.5150456188525 -1.3213786540798342
1478 2.238339613877311 0.8798215115829259 -1.6067355233712544
1479 2.2936375948700793 2.898588602924867 2.518439376941835
1480 2.490771252424258 1.1065282912631846 2.266650116791545
1481 -0.7808907617266908 -0.7199012836437726 -1.2108752030397931
1482 -2.199662137898548 2.7371952081951885 2.8958077821552974
1483 -1.3644445593419778 -1.8703388003107333 -0.16591875923924201
1484 2.55603945183987 -2.322855423096038 0.2414185065025108
1485 -2.823964029225407 1.8832895614094771 -2.0760241008439433
1486 -2.3570886287380453 0.5792725603077904 -0.8186939217725073
1487 0.6804733131159836 -1.154071989477445 3.0252914331107883
1488 1.7660723586302731 1.532093722792128 -1.2635678146394982
1489 -1.954212681267229 3.2663465820755424 3.2377000928266084
1490 0.6349078567783512 1.2254999066596493 1.738997232666816
1491 3.3002208297736075 -0.579420174093096 -0.10509246130202753
1492 0.599366798965829 -0.9324740241189778 -2.8374160241644346
1493 -2.6885723043131673 0.5002383673925257 -0.371115329324966
1494 0.32811384304101476 0.863343809121184 -1.7193018563457123
1495 -0.2563994309463314 -2.5716041456657095 -0.37285970496226456
1496 -1.3067895988789506 -1.7620445935370457 -0.21046205438628252
1497 1.3529610576430158 -0.16295501133638446 2.5926752437444875
1498 -2.4745251057872264 -0.7748222469227704 3.106894420949652
1499 2.968003205885948 0.8474852912542898 1.6540628227475327
1500 1.472714865233229 -1.385712642207106 -0.7232448659038324
1501 -0.7106825629010757 2.749535876991664 2.6842940383791842
1502 0.9661631940959274 -2.5331469949935426 2.3509556031040213
1503 -2.602999383242215 -0.7822076890321076 -3.368255060534354
1504 3.208514290572863 1.4258730779944295 -0.9721907567364554
1505 2.2819367037480056 0.021436773312859952 1.189795698532382
1506 -1.8309001413816774 -0.43113762288984436 0.6261351380377198
1507 -0.8295161015379885 -1.322859614630694 -3.220194840468102
1508 0.20302247036533208 2.3468032045022023 2.405242628248547
1509 3.186746187300971 2.3666984848172623 -2.3293003199143882
1510 -2.9372513197919505 1.0575272324878917 2.2696876314756658
1511 1.8256872195164215 -0.023088026735030995 0.29756443574462
1512 -0.3951396582710149 -2.10119720928338 2.3120112923581546
1513 0.32689489708926567 1.1386326186915916 2.029132270056355
1514 0.5031403914050478 1.235140909739466 -2.3215713697690923
1515 2.3905332485120634 -1.8624163912349692 1.4926255799051111
1516 1.1131280395785779 -3.186486021182118 -2.0807625168863013
1517 1.052806629810624 0.3351376189199586 -0.01690101898235314
1518 1.8021805285838939 -0.6198875380456625 -2.011040005358587
1519 3.28000184816233 -1.2853249114598366 -2.1585457398386216
1520 1.7633239688494833 -3.13586648170737 -2.5648128099843417
1521 -2.5527130617090563 0.05405254711348471 2.6274525561218485
1522 0.6885882433153065 -3.1805296002176253 1.1389420038190876
1523 1.6384075310007822 1.2877225507442736 2.4886008586831223
1524 -0.7144830270124307 1.1614758192925385 -1.604645747970658
1525 2.8129703850035237 -2.6042532293364875 -2.3703555502228175
1526 -0.882059759751616 1.4260494018069019 1.9912835594833802
1527 1.084673356929742 3.024975847500496 2.052585583339951
1528 0.20282175712780987 -1.0265841785418193 0.2945430313585743
1529 -2.730951859776533 1.0596104690217567 2.679121688444962
1530 -2.9170684679169634 1.156199492031436 -0.31471986932278295
1531 0.030097225014660896 2.6880834817591883 1.0388539233269218
1532 1.1892257689212296 2.378427909761929 1.0274194660482194
1533 2.7900275448354908 -0.6451174153356639 3.0340897409490366
1534 -2.6162662217632997 -2.2954195596935847 -2.3312250155173126
1535 -0.6820879504377986 -1.1101256003714235 1.1168744694359745
1536 -2.45330574846545 2.9029881097300967 0.3332010435126552
1537 3.368742374816057 2.2252447470388663 0.9800677356965596
1538 2.830509981375393 1.5141551040825127 1.753064368533596
1539 -2.4980832310780783 -2.236079018607876 -1.5761951774923249
1540 3.453099740220033 1.275068016344663 -2.5750245894198827
1541 -1.1644781963981838 2.4226535300695233 -3.108663166330952
1542 -0.7950426353765422 -3.266489616398242 2.836185025643967
1543 0.05803541775927531 1.6373847399036583 -3.3377884469038035
1544 3.1287585374198352 -3.3331067720966536 -2.5649305579260795
1545 2.3890017550431795 0.08059077139121858 -1.1904027879737096
1546 2.7656986743960505 -1.218878952251586 0.36527043360531014
1547 2.544032726093419 -3.419465311095872 -0.6449560747916738
1548 0.15517968691335254 1.054860657497504 -1.0232113907477205
1549 2.9454955951368498 3.200817475754187 2.282021442357698
1550 1.4989125076903778 2.9136823021961167 0.13217750792032076
1551 2.0699627610411593 1.5381855714533574 -2.688434468429806
1552 2.8701199803370754 2.8517781934129496 -2.184507780063058
1553 1.4236957496465517 -1.6861559564627215 1.8402381227760471
1554 2.362560405252367 -1.3940888563685587 -3.0881868066749822
1555 -2.6840895743958204 -0.2862691206788594 -0.6569228873471562
1556 -0.2706092004763403 0.82945593730917 3.1457079027976134
1557 -2.1607323615484226 -0.43697866137745023 -0.6543360936208471
1558 1.6814061163691962 -2.7090228838151127 1.5457023797353324
1559 0.40402569969878155 3.3042955251931683 -2.579928968280852
1560 -0.5439200302533137 2.6421103050052936 -3.434131216643536
1561 3.340674329652896 1.0935138903813217 -1.9245468250024471
1562 -3.297759822721618 -2.3924671606138066 -0.12399792670810614
1563 1.207615501758563 0.022966397613333175 -0.7846265775660611
1564 -1.1681439128033797 3.0992981697875344 -1.459653448802235
1565 -3.310136650258721 -2.7886733705595987 -1.444064941980324
1566 2.619831984690688 -2.8709491977947987 -0.11299857638558032
1567 -0.78532441308245 0.8914695890292952 0.38277685868330463
1568 -0.8157733501807064 1.2683148204501165 1.5759880610864685
1569 -2.7166588735798154 -0.9428270965728186 3.096811556125748
1570 -0.39779852455306247 1.65616850311 0.9292184528652546
1571 -0.5467363191879603 -3.1670309783682518 -0.37296820052037094
1572 -3.1302744439771355 2.728277141447809 -1.6553460967521105
1573 1.9388586603139746 -1.1444127652283318 -0.7290339769593771
1574 -1.1184094439071437 1.581275610720303 1.7725902431621017
1575 0.40018139392009205 0.9793885646034194 -2.993758004156039
1576 -0.4605300787417331 -0.7259827680884373 0.38818283855529645
1577 0.07337220238228613 3.3366583779489467 1.5275883621293378
1578 0.4727286314219318 2.2368219153256974 1.7778098733889922
1579 -1.842651538723279 2.763556989420396 3.033178527794414
1580 2.831087709103982 -2.617383908606994 -1.5951388963967315
1581 3.4184218966064384 -0.21627382013518018 -0.7656671512015992
1582 -0.8694707880453502 -1.5329418106619053 2.4083224409247106
1583 -0.4164779527123623 -0.8572792610310143 1.392753011307951
1584 -2.634649776676767 0.16387431887969042 0.5738761960681379
1585 -0.21608564496030588 -3.246841485264885 0.8685102541445311
1586 3.394829865245163 -2.2473899174092478 2.1012539269155024
1587 1.528544353931584 2.6453999833987827 3.4105622279617984
1588 -0.767065812077213 3.252779848373838 -3.3158500785032516
1589 -1.87112532556235 1.7332302592829785 1.9344179004994688
1590 0.4007601625821222 -3.1346554797213653 -2.973615851811835
1591 -1.0458948330621758 2.2903527393854897 1.7787882863706703
1592 0.7601264972638474 1.8810305908180012 1.4816840094453938
1593 -2.8435303649045873 -1.6950039422855303 -1.5330656568767675
1594 1.6569830043921305 2.054002529929185 1.9251857651185933
1595 -2.5082407659572707 0.06384410526334419 1.097263015898614
1596 0.13080937894387829 -0.21534144670507085 1.0633241415706316
1597 -2.782084621333489 -0.16135830000350124 1.745784721356283
1598 -0.2744328164943501 -1.1477182155359589 -0.918101508945967
1599 -2.173066188543976 -0.11047476949513313 -1.2220727432224874
1600 3.383005270624073 -0.2829219814702737 0.2328100030482179
1601 -2.1722876412286274 -0.8668389875120238 -0.10136706363857213
1602 0.9257850668214329 -2.9392936906936376 0.05805188015872304
1603 1.9673422087239334 0.04997668681850247 3.33151331373395
1604 -0.5669083202180549 -3.0833330878064786 1.4344703429624697
1605 -0.48260848652866767 1.920259127956882 3.328782716502804
1606 1.9848753306831548 -2.861134906689825 -1.2611153399996955
1607 -2.2596982513357076 -2.7876146671265842 2.5081547096064036
1608 2.653979184283409 -3.377436946595172 -0.18609021240963047
1609 2.6489452204883386 1.9858917056405656 -0.8971999199220575
1610 3.084716859397338 -3.0262106276419183 -0.48626349306133315
1611 2.8301785165848647 2.8639308432035713 1.3646475183225006
1612 2.524938290983761 0.9334740571786808 0.440016744519188
1613 -0.7629339282931873 -3.430398602428614 2.4582372813498385
1614 1.0970037743042984 2.6411664555256857 1.4647040002004195
1615 2.4430421434159633 1.7251121192703165 -3.0137762950887224
1616 2.206573419014331 -0.12037108808898314 -1.4525919851416729
1617 -2.2800929573364837 0.4737852547315441 -2.0434935160049714
1618 -2.351202649640988 2.615060615019117 -1.2917755608051058
1619 1.486806187494698 0.14318850601252728 -1.0573569854337719
1620 -3.4417474632057186 -0.1461750385610604 0.8647942635545061
1621 3.2265162805369965 -0.5256784304917195 -3.479893786458149
1622 2.407360018174432 -2.8037820908549174 0.6897385754994969
1623 2.3649683936840034 -2.4472541270767136 -0.47484828821725716
1624 0.9058010719063742 0.3042229752895665 -0.5464809996246021
1625 1.1773988442850352 -2.6169691917000097 -1.5456963142612878
1626 -3.0053414510971854 -1.4170714808193943 -1.7977054337344895
1627 -3.0514746318897075 -1.6585400244655668 2.2940074718980608
1628 2.247681259968103 -1.2913355318628208 0.63152425027616
1629 -0.22386486606772693 -2.498825640468246 -2.1492146674401655
1630 -0.5855451216694872 2.040350700724248 0.862139944508022
1631 0.13960290751186447 2.242699251130209 -3.2523743632525743
1632 -0.8232680322928106 -0.12212691399414664 -3.2799400790735738
1633 -0.4330541087860617 -2.624555450173403 2.4454425206470045
1634 0.5972993214552861 -1.077046176123915 -3.494304559269055
1635 2.430157959118216 -0.27753469328238556 0.8078044208886577
1636 0.45544794387922855 2.4698942737127645 1.9062052622689534
1637 -3.1611463771093518 2.9165325036465934 -0.4094180286777656
1638 0.20016185958043176 2.713449057453074 -1.7255927488837115
1639 -2.176863214029997 -1.6407418512030583 -3.083091340793803
1640 -0.09304819187878319 2.2736993415385855 -1.286690385018296
1641 -3.015802519589989 2.70206667262812 0.7503907571765855
1642 -2.518076243119365 0.8558868068660692 -2.476458234380305
1643 1.391881778194463 3.431374784254859 1.6642002318392726
1644 -1.165462368352188 -0.27691555380539623 -2.6277273364241576
1645 -1.0893744843707318 -1.7981770820162264 1.5327977473797172
1646 -1.942291621442645 2.9231693212486687 0.4043038327848578
1647 1.1114477506361204 3.1764200906243962 0.5567335047173831
1648 2.3362887114991278 -0.01735946062245978 -0.31228753980665797
1649 -0.6139674387004872 1.875077034837502 -1.6898687252654527
1650 3.056217013772463 2.4261971027645135 1.082527330054728
1651 1.6134984481278494 -2.1169648823428284 0.29150017665366806
1652 1.4934249031675308 0.6526712426929817 0.9075646363508368
1653 2.3149066205083035 0.49046988058171626 1.5468342063256397
1654 -1.3354782176224504 0.5176533321265809 1.6526090673482936
1655 -2.1984387091653184 2.537248506969448 -1.0667300528900814
1656 -1.7986893100263324 1.121356030428575 2.331101222127402
1657 2.8189387460869133 0.8161288696701183 0.6202252464758267
1658 -3.2672009527392016 -0.9216704079560545 -1.1993554858999467
1659 -2.367501427568004 -1.411025536356159 2.9266205303256934
1660 -2.5474215748476055 -0.9810859284766507 -3.214564686072334
1661 -2.060835229500188 -3.197067396443759 0.016379772711622033
1662 0.5753841726381769 -2.6076152477701604 3.410540896882992
1663 -1.1255772535821407 -1.2361255468070254 1.1713436289285641
1664 -0.5231326635327959 -0.9405453736900034 -0.07849879362199827
1665 -2.286651282756142 0.979281503148662 2.1275645992755052
1666 0.8069284020594983 -0.4796654920139522 1.6613666466514225
1667 -0.3445973057835006 3.0381752767187558 2.432849301416662
1668 -3.435802076780255 2.888071984680532 -1.2167516171509165
1669 2.8460129995241656 -0.9133888639518807 -0.4255348785097831
1670 -0.7682587991469875 -2.956344886250707 -2.7725084324530314
1671 1.6627192437632967 1.5731150115803891 3.031489969393092
1672 2.134304552252055 3.3007725810274797 0.49628870083001064
1673 -3.1366770870044385 -1.0703771153667618 -2.1386719904100273
1674 -3.3330885881205856 -0.9824424967866654 1.6684096216582431
1675 0.3747075837071351 1.924737674804235 2.4719703710400616
1676 -3.3949099024112885 -1.9076007499153707 3.3566013275870157
1677 -1.075632377554281 0.7821645553155308 -2.720239280956684
1678 1.2208803035306226 1.5019466273878008 -2.7343737068862364
1679 -1.0324641941569677 -0.3641468075353931 -1.534060386409586
1680 -1.2200273066122864 3.103862089290676 -0.8816075684140889
1681 2.1585986593817665 3.2902671713481975 -3.0505199404066987
1682 0.5988247046770908 -3.1227482614111306 3.3712770292384517
1683 3.354228704284164 0.5186406913349951 -2.514958137445801
1684 -2.0504730045665447 -2.0567647751592957 1.6518484737177968
1685 -1.1403269098485413 0.011762631166210024 -2.227308468837382
1686 1.8257847675485113 1.6164017485954794 -3.042995213023751
1687 2.494237306193486 -2.9258462711678903 -2.31441577736555
1688 -1.9181057488320032 1.0935663495595689 -1.0428654162069781
1689 -2.1066000423168934 2.7526246294491563 -0.7686791968547768
1690 -3.047990766234611 1.5291542524365378 -2.2223147662853284
1691 2.7064898774562285 0.24031506962997354 -1.9374580220064272
1692 1.1662952846009296 -2.375476016925975 1.6972706196243283
1693 0.9921872520391367 -1.1511869763766778 3.0687753029390836
1694 -0.9952016322385407 3.0443287370380347 2.043489784458383
1695 -0.41477162754303076 0.13810996577357415 -3.363929099060663
1696 -0.21280043001207244 -3.3978696386098317 2.4368787741080267
1697 2.0012051851463446 1.6872545881560683 -2.580490166759826
1698 -3.0552783928274136 -3.3020098426511013 1.0283271181147502
1699 -2.717177593595313 -2.740249923495544 2.6863864596198925
1700 1.529964618989237 -1.1670230867815772 -0.1019622777599094
1701 -2.1572741969589684 2.3187578052811437 1.6541221205039982
1702 2.469332258146156 0.6579840831921685 0.23131675018684614
1703 0.4134294118489079 2.1762827409925327 1.6394644659958353
1704 -1.6572104867187887 -1.7663995367892098 2.7237559154124598
1705 -0.18569896728363375 2.2506236582825494 -1.5602483510861551
1706 1.5639366807246144 2.3036516695945575 -3.0893393165805607
1707 -1.2922101368417176 1.0503172924014674 -1.255799350918549
1708 -2.8830279204955715 -1.1427913003048285 -1.1598909017951795
1709 3.4468386351365443 -0.1447580187664922 -3.002171943292338
1710 -3.4595156717649878 -1.1861639320537816 -3.4497429849440433
1711 -2.9802499760598558 -1.8676234142432027 -2.973356437018115
1712 3.314089604976899 -2.790867432666674 3.2045600656274518
1713 -2.6931713964094652 -0.6689532861614734 -3.095236236758227
1714 3.4088195401948576 -2.426875138204105 2.920298490352029
1715 1.9293241643838006 -2.214482972288154 1.5119226941018264
1716 0.16661608748266085 -0.5132802332033599 -2.7245261671424874
1717 -1.6217710858861554 -1.3169744669913084 -1.198381094853055
1718 0.16767995046502818 -3.395048509173544 1.4066698950388787
1719 2.883167462277097 0.6782640061390298 1.9614625147266003
1720 -1.8269037755301043 -2.471261490881466 -2.5657522894771145
1721 2.4195685238734814 1.6841434604636225 0.4964224946157396
1722 -0.8880049302559015 -1.6045686341887575 2.7788778207409752
1723 -1.126235565028143 1.5410429273070605 -3.109785950013398
1724 1.096445434363911 0.17785155096863803 0.18526381472780168
1725 1.5206441879599026 1.3606954945742677 -2.9405284803758778
1726 1.39719900801671 2.8288982507619234 0.831746602279156
1727 1.4508311087773005 -2.388670299485698 1.40350679157381
1728 -1.8341811603690998 -0.20958795619855933 0.8723764549752543
1729 -0.8329775081678239 2.7876194195710573 -0.8711218687934235
1730 -1.5465641280856661 3.1181511018931705 -2.950829332131579
1731 1.2883953883971264 1.2324443184825717 0.8017506903721822
1732 2.520966256548564 3.382536040197074 -2.525443269870535
1733 1.6642226449200548 -0.8420396409382979 1.4589823886834161
1734 3.1697800066795287 0.9649841953056711 -2.8633362175754082
1735 -2.3248811296587975 2.0757606492636027 0.8165603211629208
1736 2.2810699091247617 -0.7053715124819171 0.7663321404354365
1737 2.4219821939325454 0.7264693019133747 2.4254451901821508
1738 -3.304019071527512 3.1396097353303967 -2.1722097766469006
1739 0.4951049588718381 -2.322988678690173 -1.9982082641255663
1740 -2.5194664016747947 -1.7463946136333641 -0.16801980765897528
1741 1.8472410290754784 2.3551566083636413 -2.533892616857394
1742 -1.9298626924474565 -2.725659736298881 -1.241698373435429
1743 -1.1918514619951164 -0.8733261040606568 1.600936680093983
1744 1.3525123734342308 -0.7832860348469506 -0.7298997499854041
1745 -1.8280477452696702 -0.9358474831524035 2.7511982628956746
1746 -2.649364543947978 1.9981418390091943 -2.630342599518978
1747 3.400829995746121 1.706940782648208 3.0122704063491805
1748 -2.536485744023989 2.8791064120511924 0.35436761938576905
1749 -0.7612495497391564 -2.8038661389792985 -0.7228582509770866
1750 -1.133549962624367 3.180643051250567 2.3249880133830296
1751 -3.035897991064498 -2.8487076696143183 -0.017676018100426252
1752 2.618179298209325 -2.964832995923151 -0.0973737529105384
1753 -1.1656862625007032 2.8807999656439556 1.1351049587928614
1754 -0.564467962945878 3.3282292179809203 -1.7272137497378164
1755 -1.7382066748148761 0.3094484192747542 -2.6916020965715095
1756 -1.923274882507478 -2.735609651685545 -2.3730189121771623
1757 2.799747188342115 -3.3839763644095484 0.6371861579759737
1758 -1.954044784826124 -0.8325224058115822 2.2389502720235837
1759 -2.644982049797987 -0.47302819100625365 2.483213106425836
1760 -1.2972770592321896 -1.0609936417987333 3.313869849607141
1761 0.489682462641049 3.4309797999654212 1.9464037527911036
1762 1.1465498954788569 -2.0424162617699753 0.5826564342041858
1763 2.0185827632894893 3.082622551395477 2.0221116509482626
1764 0.15957109184033408 -1.266545943637279 2.0278651446774782
1765 -0.03132243076629766 1.5928953283701013 3.2854595242583047
1766 0.5259529988754442 -2.9128158534463733 2.1459761884924227
1767 -1.181192938418692 -1.6738366670856146 1.269400477663827
1768 0.3906593279598465 0.11822886213409577 1.6088812355927056
1769 3.383271643236064 -2.726701965268251 2.0036727589817374
1770 1.6888151196686159 -2.7585849541525387 -0.9594769568074214
1771 1.4209334313384012 0.33249155321881735 -2.965100416830855
1772 -3.261773052033543 0.3358985960522498 -1.0685673036384435
1773 1.9261597299419153 -0.03349684874806133 -1.6258952988076691
1774 -1.3723023822037574 -2.4433826410111754 2.30687775345008
1775 -2.904039848464365 -1.3343365213685354 -2.3328411243065084
1776 -0.1612104763073612 -1.413576915786501 1.5698132858019043
1777 -2.685539978182738 3.019612326755756 1.87705058249586
1778 -1.7938317022707746 -0.2852841043763662 2.0568371615790237
1779 2.452052485851433 0.9064390143828912 2.82854772920486
1780 3.191379162908762 -2.8153341574990787 0.31387974614395514
1781 -3.0118967181706005 -0.8601736070830167 1.1924102300733594
1782 0.587304626594379 -2.9609753384811444 2.4519346130508546
1783 -1.0213752236545754 -0.8508403593592553 -1.1198981680425557
1784 -2.624323591243698 0.6984610540258235 2.298727144693049
1785 -1.4772317571230444 -1.2117461572572408 2.594179853415304
1786 2.051336211011647 -0.08653946535530302 -0.34227553030681723
1787 0.5893027934066447 2.939396381117403 3.2250245786229446
1788 2.139379315481737 -1.3768399736931687 3.0649009035489883
1789 3.0948125538064852 0.5552179419920031 3.2168999835338585
1790 -2.9173053495632257 -2.8250703367007266 2.7748232689658705
1791 -0.06404251383233059 -1.5978873529374462 -2.5808042386160266
1792 -1.4131796064481448 2.6035568373740245 -0.8560411828015551
1793 2.769164289877514 1.6620846563860672 -3.448560539339562
1794 3.051704351378918 2.7096294633698514 3.2855342297633383
1795 1.781528421979496 -1.6846195612608166 -0.020385612968588953
1796 -1.3977548097746406 -1.1386554654855081 -0.8559598288578477
1797 -2.7842244517750316 -1.5219661633284451 0.01700638886225304
1798 -2.7344871307856176 -2.992053592356114 -0.8274427482111487
1799 -1.0262586968336866 0.12107960177616708 1.0763310851150785
1800 1.2837768505039535 -0.2635728431603726 0.1606673212671579
1801 3.369647007208794 -3.3327120488462523 -2.8515213619662765
1802 2.467671833952115 0.43405254808642807 1.4772398327378613
1803 -1.4090590794735645 2.650208963771335 1.186641666979512
1804 0.5249273378281387 0.6110123451102143 -0.26237520986806734
1805 0.8573205410836104 2.1350693145825073 1.0358541465084652
1806 -0.7830919041147966 -3.1109790328474354 0.476271766655777
1807 -0.4467705499866164 2.147169392400238 -3.2192721770456134
1808 1.8688176650480715 -1.8036596977930406 -0.6443674575457429
1809 3.127365265732191 0.9329938678140693 -0.7098214329651162
1810 3.434411684881708 -1.383376745667433 -2.9880585648436275
1811 -1.5599161845727414 0.17268087684057748 3.2509019004005353
1812 1.0551445985490695 -1.8948486352566296 3.1395537173698997
1813 -1.7835597420578295 -0.6620606438581086 2.018131379281243
1814 2.470189919625824 1.2312916248828567 2.1905427805678053
1815 0.41343693041770274 2.3026473267352423 0.7927836675259734
1816 -2.8529927753882065 -1.5535340490912024 2.3497948366303962
1817 -1.3498880848534884 0.5556713539077848 -3.0040148950043517
1818 0.16951727211288134 -0.19800146785131056 1.8267608481190012
1819 -2.6874516024976054 -1.4262396390773704 3.2892616158352577
1820 2.14136587089093 -2.5923255790819058 -2.602767454065619
1821 3.1690999033080254 3.3758957775242564 -3.39706643530185
1822 3.425051720940495 0.47991218575021244 -2.8787309883142944
1823 1.9219770563403957 -1.124647334109115 -0.7252478861085567
1824 0.22807922398808822 1.3126884563368788 -0.0723967322112996
1825 3.380832217325389 -2.201906404770183 -1.6555457110475162
1826 -1.416058802567911 2.6578389672309375 -2.069275184700516
1827 0.3406734172399724 -2.589731308681955 -0.5250916833310612
1828 0.791005165847749 1.8059779650968255 -0.3595823024169566
1829 0.38397182688951453 -1.5473300503253538 2.8098349911754066
1830 0.11809241109665951 0.5924186247679356 -1.3353316933286854
1831 3.033561058728373 2.2863067213309893 2.984407579763952
1832 -0.21910796137162764 1.32272237795277 2.470816501153329
1833 -2.0258876681076887 2.82742115009378 -3.231770906590111
1834 -0.5761955831762184 0.001841265715661845 -2.878790231284789
1835 0.9262804512361383 -1.5340723062753958 -2.750508387940347
1836 -2.3005742026119536 2.2807195868129964 -0.9494041081480336
1837 -2.302310988780965 0.7733723383881369 1.7644692381654452
1838 2.324539885875442 3.2205580147065054 1.8674448841400701
1839 2.860103396869542 0.5999672194978607 0.9612194088351622
1840 -2.5216182689163595 -3.309304974921883 2.9917195667774674
1841 -1.8992227488965945 0.10774048122357323 -1.6517248891140093
1842 0.5141551720350713 -0.49846182698920527 -2.8169339732129255
1843 2.438738834329782 -1.3935589567923454 -1.1028691027949231
1844 -0.16570738934569706 -0.8654451421830393 2.5628779599854474
1845 1.9339533243098714 -0.5399413037408063 -0.971347910027792
1846 2.606252389176699 -2.719963374668938 -2.392811088518168
1847 2.3464541548943174 -2.184364156112793 2.5074395851088402
1848 -2.444413772730915 0.09492586221773121 -2.485187840611361
1849 0.008183797121569976 1.1864379801029155 2.692122579751004
1850 1.0470730330568658 0.8604396080398738 -2.085278115163332
1851 1.2868955966690228 -3.2124418351421253 -2.3157459098333755
1852 3.4091757585760054 -3.360617279772762 -1.2468333432241487
1853 2.4738694549864393 0.7869021689045544 0.7770831008351591
1854 3.1750573200881034 -0.30836750278615144 1.6536106064549931
1855 0.7930201100578494 1.0676229365651526 -1.0694257804622622
1856 1.3391486990986743 2.996687034211851 -2.7895951583234178
1857 -1.7649990447650348 -0.14412255307024982 0.7573955399164575
1858 -2.440668784248897 0.7506070176558177 -0.2135302653274861
1859 -1.769528916398772 -0.14992589236464193 0.11053464860003283
1860 -1.8049412110667513 -0.14377765282609586 -0.3665705301255803
1861 0.5848047782034873 -3.4517004029681018 -2.605196235384468
1862 -3.047905354906372 2.9646624461523694 -1.211897738064067
1863 1.3767051297409492 -2.4971947265761583 -2.4212627772748427
1864 1.6875298955832003 3.3234717364207773 1.3622473513938496
1865 -3.2111449111614037 -0.0035880110846712695 2.7612172150507623
1866 -0.35774303830511794 -3.360312534422388 -3.0456827130322224
1867 -1.1503484949529241 -2.3241108532815336 -0.09648320051225802
1868 -0.039581051675811836 1.204343172925027 -0.8862984946880081
1869 -0.5540500174573828 -1.5156772688670224 1.9038884989238518
1870 -0.5747610769889017 3.349473335338725 2.366738532444943
1871 -0.32607594481763097 2.8949877208818764 -2.6359493313009423
1872 -0.862352907725838 0.4452966692349897 -3.322541282460658
1873 3.321785812447973 1.986611009985419 -2.6492607430432056
1874 -3.1247069067231132 -0.5879868597382641 1.2494158446533459
1875 -3.2972529493665976 -0.7941511563186862 -3.4016800134533276
1876 2.0123929379765175 2.8607956193521535 -2.8841284376883856
1877 1.1762035819861263 -1.9436292288406292 -0.07275477142029647
1878 -2.6367327682851154 -0.24144327494496592 -1.625721253447035
1879 1.5528779939731736 3.2993242236577007 -3.0841401924202128
1880 3.0410159436668582 3.0078773587599406 -1.5728312641086084
1881 -2.2959482815035597 -3.019878026866736 2.1351906323635883
1882 -2.515718483754699 -1.0414783924258295 -0.8871486698259212
1883 -1.0015346132928138 0.41648326094117216 -3.1401813289912908
1884 2.3734419947423375 1.5544693895876829 1.086222447189937
1885 1.4309918777329171 3.2878927409349346 -1.4333450548940703
1886 2.850657931364374 1.0262313655148065 2.2535914037275404
1887 1.2038619247699704 -0.7770617878308917 0.07045274584612382
1888 2.7675576107206767 2.341445961585158 2.335219077480238
1889 2.820688925814397 2.548581655320311 2.5504734945375054
1890 1.0732367468846638 -2.3311083946051676 -0.05218417667210897
1891 -2.941970512404019 -2.130193789636001 -0.5842015464760073
1892 -3.007724995317801 0.04692764452161705 0.531190744749015
1893 2.1227992824949387 -3.2092754412961138 2.4569041453217397
1894 -0.5469000293363667 1.0021970308989752 -0.29061101934146305
1895 -3.0940250776863394 2.9493827195064344 -1.9521979553743902
1896 2.577596216618638 0.10505758968204472 1.7018482871833989
1897 1.8012967084145952 -1.632844176381689 -1.84025561526938
1898 1.5608895591594063 -0.4643891620981978 2.344578019824233
1899 0.9402300099645013 -2.387790858971347 2.3428545692050187
1900 -0.34298665303244014 2.4255981696425803 -2.0630371767377116
1901 1.3723061450137932 -0.3031818269702453 -1.1598941116085189
1902 3.3928913023462575 -0.2252941916259829 -0.1155523792894473
1903 -2.1828629771426806 1.3318066169945313 2.894123658194894
1904 -1.9866980676804171 -2.9005939284072193 -0.061263884591827335
1905 -3.2891231012697375 -2.569883663157022 0.8604719244002854
1906 -0.2119931490664715 3.2493967405641695 2.1105972262535255
1907 -0.6148265632878409 1.2771790422564626 -1.6985344575001429
1908 2.7460492896307778 0.7277260276259414 2.785120820672517
1909 -0.01070281868790174 2.1114918530667204 -0.7503865576482468
1910 -0.11460045776254986 -0.07860074295110281 1.5904469198660818
1911 -1.9312759384554585 1.2047325013686718 -1.2635598158877834
1912 -1.819777661201474 -0.35463401974041214 -0.8288388075378882
1913 3.1929900928123796 -3.423253161543162 -2.021018280541821
1914 1.6720382084622403 -0.9792481846545525 -0.010422162224471551
1915 -0.03894551830278224 -1.9556563736406112 -1.512547692110147
1916 0.46719316007425915 -0.8286868690109006 -2.5042274543006258
1917 -1.638197695596212 -0.5708249223982911 -0.979491171019348
1918 -2.7641500986808554 -3.246832912871831 1.012586464206943
1919 2.637126645878611 -2.8691665009823852 2.165968855704364
1920 2.641750162849705 -1.2894659767280017 -2.5503849665095233
1921 -2.2886043542691565 2.757530951600731 -1.3565764777862503
1922 -1.0716031691246568 -0.705974103373067 -2.440708493582883
1923 0.1364861626460756 -1.6955003934153114 -2.9562153215696925
1924 0.7352290580210299 -1.327962350932448 0.9872742919436213
1925 -0.6215796979510086 -1.491483664989111 0.20422493623464985
1926 1.8478075707979429 -1.9643856092606902 -2.8900168144773346
1927 -0.8998824803516788 -0.530123361312024 -2.0580968743935184
1928 1.355513961412423 1.2194717998639164 -2.6855310536883095
1929 3.2228802259008504 0.6494915616377358 2.832300929137067
1930 -2.935634311868295 0.5517615112173841 0.49030374282021855
1931 0.08470074548891093 -0.044242888078538496 -2.2962620141492027
1932 -1.3188042073597666 -2.9911395980078046 0.6926513167468197
1933 2.8744792226765834 -0.010185015399606196 2.6166372705471765
1934 -1.1456000981957957 1.3544442348519752 2.725820943667845
1935 -0.08229144672510069 3.1239988274918993 -1.5579678238265815
1936 -1.631468508847626 1.795345184481197 0.8735902027052004
1937 -1.1956328315843485 -2.1404645284440713 -0.18689685525980848
1938 2.9331077846239846 2.6200203921645233 -0.9812547604188225
1939 2.1987252320379778 -0.531464602441074 3.082481363809553
1940 0.9793157909773964 -2.9399943613630626 2.123288886205009
1941 -1.8479364383774357 -3.0112978155322256 1.008008587172103
1942 1.8244965302347098 0.7271106361538848 -0.6370591766420063
1943 1.3849618911501655 -2.139895192637104 2.461225578896093
1944 2.876389319429681 -2.510711253769821 -1.210287694404092
1945 0.7538910287919183 0.8920790861754505 -3.2148135529553516
1946 0.6771635411620834 -1.4157734303714389 -0.7434849755635543
1947 -1.771686410481792 -1.8074065780023982 -1.3318428743773014
1948 -0.6161990872061311 -1.0287170318288659 -0.9487997963328647
1949 0.9336532152273267 -2.192708430053358 0.6793169367920391
1950 0.2260984758917837 2.6257775694445886 -1.1102388438896134
1951 0.5437345558753255 -1.648479718570753 -1.640043192417888
1952 3.0687062846802635 -2.2084654295166426 -1.1618030481881207
1953 -1.007787896873316 -0.8718867734852186 -1.8910522326693726
1954 -0.9312088373287815 -1.058665086579127 0.9256705843056255
1955 2.1105770609670023 -1.0070184551764287 -3.058159096346104
1956 -3.219788645217527 0.0559676519488411 0.21109715626177966
1957 -0.3027664833794341 0.17695112098212074 -1.1068540216013352
1958 2.066806966669116 -3.0563191247185726 -1.308347292105999
1959 -0.2061028451004373 -1.5628316053664393 -1.6587350634379332
1960 0.3461313599937708 -0.8272456015902647 0.9570406637100087
1961 3.3739616215411536 -0.024033700265190954 -1.7549616385793307
1962 2.5109297664374606 0.7961541078024669 -2.9017827333238615
1963 2.050749198672386 -3.0317513777789977 3.2802115825754052
1964 2.292955290391637 -1.6481982927076502 3.089881288751365
1965 0.7771737643445511 -2.2751394723888114 -0.5983168875515491
1966 1.980394121882169 -2.0490620159306734 -0.3812621680490652
1967 2.8078072455577785 0.5880202620226821 0.8691348561050641
1968 0.05110606885557665 2.827793765593673 3.03077780011524
1969 -2.9144200270828593 -2.776386723952885 -2.563529629093361
1970 -1.748405247608787 1.9196473104637348 -0.03332941729321713
1971 2.518269059423288 -0.4250292030838463 -0.5202202856244214
1972 -0.38386726111619146 0.49496098630716395 0.9010989250032058
1973 -2.5437368960511577 -1.3390296584175057 1.8380581761131736
1974 0.32771921002632975 1.151451204846249 2.929271091699132
1975 0.4763365873005448 0.5893961053262525 3.2308198385980185
1976 2.6504510870137756 -0.38782749548799167 1.865476659472115
1977 -2.5370307032967223 0.6406803887644976 0.07771239292144674
1978 0.20776548198381636 -0.9858542060957155 -0.3065529472373157
1979 -1.1225327552981146 1.4878257980470815 2.1615041374805437
1980 -3.189724289519694 0.13616729714957437 -1.4108382949388694
1981 0.4830264538357267 2.294711385524729 -1.0931952603597594
1982 3.2463595270707573 0.7859513326023363 -1.3622136834587109
1983 1.073743723366217 -0.7310591426701978 -1.8819910746347746
1984 -0.8958241676808245 -1.5291070376421085 -2.347692150732128
1985 -0.6170505643165234 -1.498083879117385 0.005697658940777634
1986 0.9794143380477746 -1.2837137495215196 -2.7625649366930456
1987 2.6861451169244575 -2.579555984475824 -2.526029589328403
1988 -1.2693440099234077 -2.1981381096917105 -0.6081505890036534
1989 2.8022811812835364 -2.3193838391664787 3.2226938222964
1990 -2.43011989706785 -1.8925624424831498 0.03936882001183947
1991 -0.6071483707329977 -1.168823685715576 -2.6818106673298163
1992 -3.455630982280522 1.8174719715029173 -0.9595418942961592
1993 0.3295290581212559 -3.03395423142301 0.8603727553480055
1994 -1.8787274107358516 -1.4623347280748238 -1.2596099665479945
1995 2.278999930795794 -0.8919749197531815 -0.3980073549557324
1996 -1.8003701532739043 0.5542414626328184 0.6466203407938929
1997 -2.5699370554402523 1.2399777955073026 2.844218521331979
1998 -3.3370920245850764 0.9388455798978387 0.7500409294177774
1999 -1.4769269118688422 -3.008916443414211 -0.49249706658321885
2000 1.8730754373245315 0.5496742172989877 0.012677224020630463
2001 0.6329885849865218 -3.3488832044659977 2.188045078497881
2002 -0.04121491756490639 1.4267770690690396 0.3797782871562023
2003 -2.7678336914260027 -2.870635918723821 -1.7684217039961847
2004 -2.249846541412781 -3.306833357419395 3.0079680898558796
2005 1.2822301619849759 1.4240511125318782 3.0095580818505976
2006 0.3224077230628885 1.8504479662832523 -0.3883555042537276
2007 1.2420817039448433 -2.0427492347860485 1.907083426592459
2008 -2.24324753902127 -3.128671739893744 0.7052368014871897
2009 -0.14311742561460353 -1.8346707582863637 -2.794425653468913
2010 0.0973227273538443 -2.4484323638295677 0.48464002718337357
2011 1.784494666561213 -0.27587819111930134 0.9658183816914068
2012 -1.354430682945936 0.33597442305832986 0.20585718754896198
2013 1.598237516292551 -2.541380717290749 2.3808744247048867
2014 1.951913167749056 -3.1998494570375673 1.7032186873396502
2015 -2.849205759621293 -0.19150031642607931 0.3603412753720869
2016 2.7481239827759247 0.9935713504315328 0.07237130864303924
2017 0.40932017078428007 2.3193129031811512 -2.8577564211547783
2018 1.4855991558802133 0.6187215819741895 -2.1866162342569417
2019 0.5904284807455351 1.0967100652364365 3.3486326501476884
2020 3.4088953704236413 -1.1523964830279545 -3.4179940379937044
2021 -2.26994304415262 -1.9542357025222346 1.6025583738294813
2022 0.9255010917993423 -0.7913574134223129 2.0285300046583252
2023 -2.6984296797499994 0.9242367654711552 -2.5556465660126344
2024 -0.7511490470554081 0.8583751018625625 -2.179911069545132
2025 2.5528602155177977 -0.39064449986296085 2.965015444135205
2026 -0.8696212174299309 2.8594959962245703 2.9559235511710735
2027 -1.4215678477415068 0.036474890605535604 -2.1306324843787645
2028 0.29350428208307217 0.5196285661760746 0.24684536949743122
2029 -1.5838358295930788 -0.44393351476183696 0.10741912513911843
2030 1.1980917696602698 -0.8661960870372941 -3.137547731932528
2031 -1.8086235534026864 0.2534349689550783 -2.893853218185434
2032 -3.0919793405380305 2.728564603435795 3.1760275353370293
2033 2.209905160142461 0.5105662640815016 0.19223248384490443
2034 0.9910899889508996 1.1692257202375504 -2.8454455623717427
2035 0.7730685162103726 -2.0650001281448063 1.6543603170135566
2036 -0.44800347925169687 2.187440654804928 2.3115011253994866
2037 -1.326776703703519 1.4292038233069755 -0.35799007708825836
2038 -0.5383149678321024 -0.04346821123088119 -3.11767718264916
2039 -0.03811647765872198 -1.863379215996646 -0.8481612425211548
2040 -3.206768888201357 -2.583519330500617 0.06905850734723254
2041 0.09670458046973443 1.0037819020167904 -1.336500036379781
2042 -2.7613716539611093 1.9262606506660351 0.38580778616013073
2043 1.6800934380670778 2.911610786637267 -0.08026212198243624
2044 2.680611331051058 1.303967470839439 -1.3112060433906014
2045 0.19179562935645392 0.516307153814764 -0.21049639874447024
2046 0.7757354295846975 1.2335861128968326 -0.7702240097599359
2047 -1.3288433690926147 1.2982809964658462 0.006081789162619413
2048 0.5147865030018814 3.1916132586594124 -0.15775685168144105
2049 1.319130305039458 -1.2586471892100177 3.2888458064315658
2050 2.0735616965708403 -0.2608452430440918 -2.44148883916715
2051 0.862626874943106 1.3494643351418207 2.07710019755611
2052 -3.0223255241721003 -3.119504235844711 2.5279789357402374
2053 -3.27477138773519 3.3354136116915027 1.36891529387266
2054 -1.8743072463969839 -3.300381893646837 0.7064481386344268
2055 -0.5462874126125886 -2.5429626396342617 -3.444380982092961
2056 -2.830226213914787 0.4453185900686567 -2.9541178310153473
2057 1.384230437210645 -0.5920326070856154 2.4595849131012297
2058 2.9845371993211787 1.9061340156423403 1.2319721462890376
2059 1.1168010038454197 3.1793886233260635 2.003931306868039
2060 -0.8864750288028711 3.3463716662829768 -1.3180819727502147
2061 2.280026932488028 2.5274335745463468 0.0706080769637255
2062 -1.5424967692842468 2.2712057419710523 -1.672391475328179
2063 -0.7939356526125714 1.497160750581342 -0.12215151058912516
2064 -2.3631911542181427 1.8246939193850265 2.7677601101629223
2065 -1.1225764648345786 0.7531996186950151 1.836088559237023
2066 1.827890740260194 2.4079627461626396 -0.871307241959165
2067 2.258573548835871 1.8370471567277098 2.7674859224933535
2068 1.189855846256124 -0.873271269749447 2.5225369485947144
2069 2.1516132869890257 -3.381615056847607 -1.2005444897073847
2070 -1.5889749985653137 3.151211724884634 -0.957296597638416
2071 -3.4579968564142525 -3.3422522264038528 2.903621792354079
2072 -1.5277601456334517 0.8042783935119534 2.1497021888015553
2073 -0.8446460046677233 0.4549240048264821 -0.692114887627163
2074 3.4380268177224753 -2.9101793527311663 -1.9872876057931153
2075 1.0857218798403283 -0.11461301489716201 -1.5665184797412792
2076 -0.007548522873290193 -0.23989417906598368 -3.2728847095465703
2077 0.4945654814188739 2.451422716416917 2.8864431001752004
2078 0.4195482925525951 1.2057436247975308 1.888982705863811
2079 -1.951063989735144 0.8207693735148175 2.4854241554065166
2080 1.2603007913744264 -0.34554364144723415 -0.3023492519365883
2081 0.32192942864832064 0.7324582141811662 -0.7294734281207556
2082 -1.5835606396625175 -2.7395208253527614 1.0989299982956127
2083 0.4649646311462384 3.240654278966236 0.5108390940757593
2084 -0.8128743795482407 1.5463829255341672 -3.3295939030210175
2085 2.44036810464275 -1.6932307008871095 0.5869846322345614
2086 -1.3651421491062306 0.2466789789760285 1.21019925407877
2087 1.9771387233927844 -1.39690863871451 -2.035337380310313
2088 3.235584973253911 -0.36365835515732653 -0.24534574178241556
2089 3.3227072415747694 -3.289043076559364 -2.501778331273145
2090 -2.0000138139597694 1.6849059812712046 -0.5292992394313671
2091 -0.718345476615517 -1.4683743979330677 1.042225829016944
2092 2.4952089128239865 -0.43746257941076955 -1.866842006083426
2093 -2.3514945460698926 -2.2908426655835115 -1.535114916440718
2094 1.8185998807641925 -1.4880143852930228 3.1467730000756724
2095 1.8989486437089156 -0.6037279132613864 -0.32370072401522854
2096 1.3443708269212857 0.795831192846063 -1.4083099320616077
2097 1.4529944907408134 -0.6322320064103379 -1.8633856043131445
2098 0.37461421874504003 0.3555527568650824 -2.9349012521954836
2099 -0.9158395936295135 1.186148246108499 -2.1774366644035497
2100 2.6159605888608657 1.2695458257608168 1.5033808974008527
2101 1.9394328785177373 1.5857681118766502 1.1503079689663689
2102 -1.1135414977166544 0.34839355181018106 1.313019913765138
2103 -0.0921523123505332 -3.4313668477786803 0.026346629854031987
2104 1.991444800213783 -3.1793320820258075 0.5035168330813947
2105 0.6945656118568124 0.39124084733200437 1.6942505010972408
2106 -1.3220135179570205 -1.5643870177455665 -0.1177330252791226
2107 2.6912467156116437 0.1145594686234582 2.223724764152366
2108 -2.4740273204579246 0.6707513091106955 0.2682440831962905
2109 -1.812287316849164 0.9629029858527208 -3.238701125623931
2110 0.5995891655525742 2.8048411993044984 -2.09425777745524
2111 2.621209874411398 -0.47487008244860024 -0.7906384709371869
2112 1.6005313017570222 1.406749216373126 2.8861772303050572
2113 2.871777858594834 3.032920177409927 -2.84115109960847
2114 -3.17764503037081 2.4518460798391497 3.081207664114198
2115 0.334358431765705 2.005579401912842 -2.199903401595841
2116 -1.2644498309210912 -2.9901253002153525 -3.022159106125582
2117 -0.2692422067183815 3.042406606707619 -2.5789367846843168
2118 2.2903007296423414 2.181530508649407 -0.1304626809126027
2119 3.2857631633945314 -1.3447624333817036 2.377171982363132
2120 2.0113049917259955 -1.5829080661091333 0.03070843746604807
2121 -0.8274038735575393 -0.4261663149089688 1.130454690154571
2122 -2.5937837577747294 1.8493111251652787 1.266869246579867
2123 -0.6275146589285286 2.5701942888983234 -1.0033310573345353
2124 -2.0402599328266375 -3.423279880983317 -2.4700919112288364
2125 -2.3405965916882185 0.9327603152211996 2.2855646122146682
2126 -1.2373719680551847 2.2617251070954323 -1.8372189384883406
2127 -2.767319570209336 -1.1505051037405927 0.6875997505416506
2128 1.021259694847583 3.0200461575210875 2.247739781879487
2129 -0.2544838459280564 1.940815362335351 2.7821902385349877
2130 -0.8200654893742838 -1.662623870621447 2.8638498653993896
2131 1.3337974600794722 3.027570994475976 -2.7757105145248633
2132 3.210961650781171 1.0344292577872107 1.621477355256789
2133 0.5444161578042613 2.886499427515296 0.03609800088306985
2134 -0.21416967966294034 1.271969373408117 0.7117193643548502
2135 -1.921954885444222 -1.312532430159336 -2.668817268810936
2136 0.3825792448605593 2.7303616831768562 -1.2239756243409807
2137 -0.9158997937431426 0.17436493634689676 -3.048632344574016
2138 -2.279874503112584 -2.77535907771982 0.8667116629552212
2139 0.8487256406635587 3.0153718990730614 -0.18477274516913683
2140 -2.891200762688573 -0.0896605673171103 2.5669995859021455
2141 1.9990753708693174 0.494988401851417 1.3618719772591985
2142 -2.599353518694618 -1.7925024994209677 0.01564479635645867
2143 2.064045518491087 -1.0230473380758112 -2.5481195182826943
2144 1.1832616263575797 -0.9710535279771212 -0.6969168553954721
2145 -1.1408962553236206 -2.6365222949559266 2.0191119933698594
2146 -1.810742513612117 -0.7564069032555113 1.181874127359699
2147 3.4453426300858236 2.3947029879225847 -2.2655208293472886
2148 3.216157716595275 -1.6044507605615577 -2.1607246004501954
2149 -0.253263962169398 1.681288273489817 0.9542263406248971
2150 -2.4021396286977788 -2.2360961472804632 -1.8640767776734228
2151 2.5994724996236305 0.9824089570603608 -0.6749532951165346
2152 1.2033242552540375 -2.8929688685757915 -3.4002682950070953
2153 -1.9436730303562924 0.46794313019263745 -3.3422180118706937
2154 -2.111895125716182 -3.1933883799385123 -0.43673008545466835
2155 -2.0670811363108776 2.5592484129058533 1.888351922756707
2156 1.2887732762410187 0.6629008372370954 -0.1812516991761957
2157 0.9213834523676854 -0.7894786059038629 -0.9978744004396951
2158 -0.2993856572443086 1.6328601857317786 -3.2542212047685037
2159 2.7403889771695202 2.4847171208132455 1.8884354326894937
2160 2.692324716597143 -2.5295913887212356 -0.17631004007355286
2161 0.9273943080280732 3.345109848697844 -1.7633367054581037
2162 0.165270205659626 -2.371402612331559 0.9519369025883332
2163 0.6435021319937969 0.33468950835251304 -0.6275908524962616
2164 1.342882917303404 -3.449352334274832 2.2552719247046973
2165 1.7655600936912004 -0.1568386346738258 1.5800507082944122
2166 3.27791248849057 -1.797670547045142 3.125426532856586
2167 3.005506716503282 1.3848811448183231 2.1468357062496835
2168 -0.5766869392107294 -1.335675132770995 2.8519349287127014
2169 1.7798862995223548 -1.600953804282181 1.2469837987351866
2170 -2.648421854641866 -2.9201924137830573 2.7408071335284587
2171 2.6452404932493376 2.0068812615971097 -1.0816611087279995
2172 3.321120742991356 -2.270506873837406 1.1340177569869985
2173 1.9250447065310758 1.988418105890996 0.039782247837161125
2174 -0.579371384095661 1.991791000951194 1.3623937362847152
2175 -0.7508540503851053 -1.1043203338999463 1.7961254260220691
2176 1.4758447297276358 2.7729886005203985 2.374063394161561
2177 -1.7898055973052527 -1.8255826842266571 -2.306663349820479
2178 -3.1164409960567987 -0.0769157617513943 2.2271080492107616
2179 -0.9767911322956275 1.0378999683639434 -2.3326302434373747
2180 3.3830642912279814 0.7090373084105599 0.11551827697889536
2181 -1.0935527299767418 -2.8149062468412818 0.5850696982025252
2182 1.0540839421573374 1.0408128095150957 -1.8214403307936915
2183 -0.5630300406921558 -0.18742935786411757 -0.4261029091215668
2184 -3.394444817861055 -1.0116291876801367 2.497713396290075
2185 0.1844381152013302 1.4312472723353329 -0.6172646251680383
2186 1.878173784303226 3.1891382057542947 -0.23174418676230818
2187 -3.379909635778922 1.0565194928983972 -0.8259827020933979
2188 2.750622983595624 1.4700512858784842 1.0155704820020786
2189 -2.576122059587807 1.0991801906268999 3.3398032464370413
2190 0.3479011498760407 1.2347950555748823 -1.2136378403956551
2191 -0.18637686310279059 -2.2220669007464418 -1.3784823806651374
2192 -2.446775757060729 1.9212820722645836 -0.24070572456604455
2193 -1.7409770853331614 2.1920901532169257 -2.592832746619866
2194 -2.875883894377244 1.2748796202824235 1.179307266058593
2195 1.828331583629768 2.896512785055969 2.2336908220641454
2196 -1.0713993620911448 2.719410708866412 1.5820199255552476
2197 1.7710246236522922 1.7163582654131921 2.115700346057074
2198 2.104854292499207 -0.29972546387241394 1.5655646853414706
2199 2.035981292232351 -2.090593868070214 0.5840507500479768
2200 -2.2299687442677665 -1.4145114709873234 -0.2958470273508733
2201 -1.1264535358464196 -2.1223926154678705 -0.9632522999398828
2202 0.2550816659086381 -1.6237654384959221 -1.5094063870159877
2203 -2.102527910690619 1.9858961368587797 -0.8227244353973143
2204 2.146675556362748 -3.3216000102275136 -2.9505090823515125
2205 -0.24987103155746346 3.3406372799667006 -0.8060501608728897
2206 -1.3576759266945257 1.1587985288108325 1.843064440766026
2207 1.4195555480631001 -2.063479234149891 -0.46679220459581766
2208 -2.109690973322395 -0.7517214652467695 -3.118422942172428
2209 1.269312161852523 -1.1469384339249191 -1.65372091927342
2210 1.5703986505127208 0.17870632168267753 0.7099862585139847
2211 -3.3674468587219857 2.8972792826804796 1.2748074501286986
2212 1.2964873890563815 -1.1793900721801884 -0.3327516660776529
2213 1.4806860015958276 1.0917912067656956 -3.194872458678015
2214 -3.287384142998125 -1.0260298863178516 2.6898279660515656
2215 -2.914977045714543 1.703210080413712 2.596698213018866
2216 2.8531792268514224 1.8774177751015213 3.047430524416975
2217 0.13973837065834613 -2.40127611948929 -2.8413758026557274
2218 -0.03352467209652042 -0.8166523409956976 -0.9403448353953667
2219 -2.2986122525489896 0.6516919273541397 -1.7103793164849646
2220 -2.5507704091985772 -1.899309076952035 -2.6200451219345284
2221 3.4529239191494083 -1.6799567176309107 2.220278065944297
2222 1.8836561583772289 -1.5584633620142248 2.5512862218531294
2223 0.8913357935000834 -0.5890546254153641 -2.855112943285074
2224 -2.53039960277182 1.3583153341930154 -1.4196571668523355
2225 -2.4009598514923387 -3.1696940760608556 3.3132801946504724
2226 -2.4999439205537652 1.0948353312160395 -0.47720413651835825
2227 2.835285516524217 -1.2718793320981627 2.3587634386016414
2228 -2.8700931719696214 1.7096884956611254 0.7481516996740876
2229 1.374311153626982 -1.2085244328035791 1.3760669577998368
2230 0.6717323275165533 -2.729023014809879 -2.402684519467104
2231 2.5006075610440237 0.32845989875673937 -1.5180722255999155
2232 -2.4144830464608993 -2.0707842859040637 1.3298834867089655
2233 -0.4149652604995234 -3.1162791339970948 1.3666299003298115
2234 1.2393103201699025 -0.17646502544494805 -3.00758872566866
2235 2.390485558935967 -2.663935096687442 -1.9413514546872659
2236 -1.9842875204216803 3.009951481486453 -1.3165729673109297
2237 -0.040936543602638806 -0.8152962206415606 1.0898565359765482
2238 0.22278185246884855 2.2489234884781557 -2.452184359387282
2239 1.0413348471723904 1.308612077186528 0.6229436232128143
2240 0.8963300245756181 0.30053337864657687 -0.27119151650902557
2241 -1.9835512292032216 1.5433890430416115 1.7178588328961355
2242 0.9830640343906122 -2.229607577292256 3.3787519110562227
2243 -2.5088175816605833 -2.709992946770323 -0.9167367614128048
2244 0.0021321806990204253 3.2874878693891465 -1.3173166514127213
2245 1.3013737046605585 -2.1035373952422844 -2.4159717512600865
2246 0.6446459696024923 -1.202945222915105 -1.7440150761508764
2247 -0.3692162840510388 -2.411428527046171 -0.4552777726907866
2248 -2.3663592045340907 -2.9757964259851564 2.499277980485229
2249 -1.2024132109884487 1.5536748769959468 1.574258264962771
2250 2.8141800431218953 -3.0356426544707573 0.16586448602337922
2251 0.7492369090221614 -1.2019626752039951 0.9282553573964284
2252 -2.8920729166688286 -0.9065435663952678 -3.028594894665127
2253 2.2957313857600536 -3.4352947505031692 3.2171302747501227
2254 0.9531991221848642 1.042239548985397 1.3956565259532763
2255 -2.280210447461889 -1.5008712829546833 1.6027326802291524
2256 -3.065635722473444 2.560667108506583 -1.9504490099425988
2257 -2.6314002789586914 -0.5874533217290592 3.295884691826813
2258 2.724132484343732 -0.8306833342353718 -1.4552961143035874
2259 0.7165395331296099 2.909598581725698 0.7041322969827142
2260 2.055588788289008 2.179482099879354 0.04545348848821011
2261 -2.1526923914477623 3.197413823205526 0.4424688453253083
2262 -1.0747025210561172 2.5688537728777074 -2.7712703952018636
2263 1.7082979035198553 -0.5845470226673434 -3.223582766220482
2264 -1.3722098615901508 -0.8883886881232824 -2.4105526130870274
2265 1.7549430882124137 1.3414665953564167 -0.8475273785088778
2266 0.5258790926010407 2.765745866196486 -1.702596337704498
2267 -3.235631043118234 -3.22044387079217 1.6081303906422797
2268 -2.3154749650308077 0.9889666604981164 -1.19090319336149
2269 1.2760897955126818 2.033478915762179 3.02002613716601
2270 3.2414015707531996 0.5060331858571294 0.13253597574897016
2271 1.1740270836166993 3.000189517428855 0.7110044815600983
2272 -0.09558106976456679 1.2278475564013787 -0.32828039931898784
2273 0.5015172055575253 1.637074264585296 -1.6352426490848162
2274 0.702984401162866 -3.448961230121197 1.907854961303564
2275 -3.117472596547863 3.3470882055476645 -3.116615498214802
2276 -2.9564996100207064 2.824623614074616 -1.8050274659168584
2277 -1.5401889972837406 -0.4662970867486951 -2.039093686929326
2278 2.389679889342444 -2.363415007950725 -3.2144857394886315
2279 -0.7339799972073632 -1.2509919906493256 0.456383018762041
2280 -2.5231416701751077 -1.2302920365563272 2.325287782878186
2281 2.00232791404282 -0.2051542693930544 -0.7383986138216154
2282 0.666341703829864 -3.360077161001671 0.9102383689671546
2283 -1.192600611803156 0.37712201929056655 -0.29694029106325304
2284 1.261176670800686 0.5339529286204524 -1.2282516016732172
2285 3.3454983922808967 -0.8769192032731117 -3.4226459953289723
2286 2.593063704454093 -2.9196443542689265 -1.8893655595499823
2287 -0.26611161389283583 0.29264443735347 -1.3672428325337733
2288 -0.40271109875069966 2.1389876458756536 -2.3157965449610702
2289 2.558151167410359 -1.4347741975848103 -1.7369737479458789
2290 0.3224108071907656 1.902282903512474 -1.207329158530716
2291 2.0330721378547536 -2.539820177589311 0.9260472926397962
2292 1.5212095598407582 -2.9785082509645955 -1.5541376077104612
2293 0.45663349294781214 1.6333040487751467 -2.7149195084208584
2294 0.6611391571577028 -0.8301209240196357 1.0764279080387333
2295 2.911079728366779 -0.8081840251721788 2.972549739726791
2296 1.1866042666711634 -0.15693356587014098 -0.01545790817494002
2297 -1.6262740253812626 -0.8701293523414979 -0.03689296430856339
2298 -2.008629839205562 2.2101636195365284 -3.343081148724721
2299 -2.7772272842850803 -1.572548209863045 1.1312005270227388
2300 3.0207920119819973 2.218776734680468 3.0034556047110628
2301 1.5686415419713033 -1.6701990397698403 0.12066251204206312
2302 2.317152294222433 -3.290718847270595 -2.98363878078385
2303 -3.4043547008166963 -1.4701246582281542 -0.6915810563518797
2304 -1.431279885666324 2.9031608531182522 3.2364991682364983
2305 1.213081691412296 1.9240577519041644 -2.0347893369097028
2306 -1.3948585397682574 -0.9059767829699921 -0.4233703395954779
2307 1.0076243658879236 2.234319959286287 1.2516615602626295
2308 -0.15703307182713588 -0.41098455202396006 0.22427797758624426
2309 -0.23524563631789933 0.004294023953430399 -3.179509370343684
2310 -1.1460240288139607 1.1501468088938116 1.7684017396887646
2311 -0.7889517470811512 2.2132073347034447 -0.6322916531357139
2312 -1.5357242210512454 -1.5545521561199664 -0.9201210487321937
2313 -1.5119490079630549 -3.365405248114218 1.330236424377284
2314 -1.4038463426108625 0.291519259201836 0.48400139356894606
2315 -2.028316017584181 -3.3823261336287516 0.6897969966804315
2316 3.3468531816582177 1.1309124407470081 -3.15121792088304
2317 -3.1802416178950477 0.3352264011967448 1.4752627069610287
2318 -0.0350896430161737 0.5636993065446486 0.42840007554752024
2319 -2.224564076036367 -0.5474106618436546 -1.9361690209117408
2320 2.068423262375153 3.3466493860363005 3.3495539213619807
2321 -1.8694127515696601 2.833643460264641 -2.4639709679944892
2322 -3.2764707550862493 2.456964436587947 -0.8637286148492129
2323 -1.8608256114212152 1.8229139908754821 0.5353195444051633
2324 2.30849036800135 3.383785572833965 -2.2866616622596063
2325 0.8581071097096018 1.5135192645525886 -2.0127861373696505
2326 1.6155790323761938 -1.7521077881108875 0.7005193781397022
2327 -3.3011024179173445 -3.2058288268783537 -1.9021875972207907
2328 -1.224260067481794 1.1708948908506709 -2.474512961811347
2329 -0.517444523021154 -2.2298304240619204 -0.3666337466902987
2330 -0.4776760250236851 1.7716859597382753 -2.2868450599077
2331 -2.2242571618060962 -2.309807667226163 -1.9274917417280608
2332 2.5726605581911337 0.19990008106534532 -2.963132420974895
2333 2.1315154049318075 -2.052199589133421 2.251180801682834
2334 2.213100200605713 -1.1560244583447823 -2.1070349260798626
2335 2.417511620055274 1.7172833555319098 -3.0984234492730844
2336 -1.7137298822546885 3.369337039598466 -2.8985031774441254
2337 1.8046090810907487 -1.3274323965702644 2.9735127836323505
2338 -3.3896302332059762 -3.1413585722344024 2.0194843317171953
2339 -2.4735563834769447 1.6650846749073356 -1.4721805671476402
2340 0.6884239981980105 0.9797071869178875 2.361327235111095
2341 -1.3045920788103156 0.5681528323169361 -0.8489414785334808
2342 -2.4787866002869867 -3.1907155690155826 2.9609762549908103
2343 0.45077156811457264 0.0017960060584991749 3.2812351843147556
2344 -1.2654836969731769 0.39580138299578294 2.215424193302856
2345 3.3530723561379356 1.8460108182934845 1.1642474406307244
2346 -2.136793335185293 0.5053779585390041 2.9615393870922775
2347 2.994628323935833 -1.5099464243026128 1.3323304634154782
2348 -0.8128545953674287 1.8788956524413662 0.20329708103576627
2349 0.09475419024657732 2.827095789104922 -1.7794085727855153
2350 -0.04712949816134586 -1.0897163857565382 -1.900679175090958
2351 3.3656772480027306 -0.8454102897736998 0.17412320039131388
2352 1.1393598201408484 1.686668055999726 1.4030728286776084
2353 -2.2070910832912833 2.451590516176897 -1.214050807374282
2354 -0.2064083993495539 0.2224226032665723 1.8548566439876477
2355 -1.0893146387545602 -0.7923518110166037 -0.8429014155053298
2356 2.1466900843130823 -3.0774287489638463 -3.1418738319824984
2357 1.610362115666203 0.5363312230559989 -2.7804838646802694
2358 -0.8869852022069472 1.6925917375127013 -2.848179085818262
2359 3.2756712653308795 2.0583186492643852 -1.6615457770943902
2360 1.5513982506876225 -0.8086077559826861 2.7716104810708333
2361 1.3042671225737634 -1.9187938427663305 2.093310567040022
2362 -0.4821200760457551 3.208269640730364 2.957877673285643
2363 -3.182159835862618 2.699259387928885 2.0132881318954032
2364 -2.802519685258407 2.421745990797638 2.4004377117059357
2365 -1.4417369354470448 0.1691370269930303 -0.9449466990172383
2366 3.4063195371141655 -2.920200074150835 2.6120593322809578
2367 -1.9592593296258567 1.4957813010718213 -2.5444459964880335
2368 0.6378021673806075 1.4252468840180428 2.3447760292129693
2369 -2.652530667086841 -2.769958441091319 1.66605332217856
2370 2.2966090699006405 -2.5254663467381326 -0.053774165444123015
2371 -1.9820939094931864 -1.6462564845456598 1.1223286996345854
2372 -0.7532169564083081 0.7065449753657598 -0.2488963657540976
2373 -0.986994062185557 2.574869146769322 1.4392559716207087
2374 -3.0990013099591645 2.3623005925868146 -0.11692582812383004
2375 2.4164003575401845 -3.1182967885013904 2.059433014326714
2376 -2.364381698478167 2.577329961767479 1.2739468044249826
2377 0.6730239937875755 -1.7821014183433188 1.8090026299426154
2378 3.361172342658088 -0.4316052082585027 -0.3118676794638418
2379 -0.4780791305275959 1.9173962290520314 -3.263732336093549
2380 2.06300768851289 2.2962576389786453 -2.788131354532621
2381 2.0750378465412576 -3.1340105843927635 0.9444354624656143
2382 -0.8605214868492934 -3.3775350263734474 -1.8345170458831097
2383 1.1191626046734389 1.3465868986185234 2.1609558652679386
2384 1.4368735803015602 -1.668899290956795 1.2034273922817538
2385 -1.1062709224515397 -2.0277284910914766 -1.7053428196444271
2386 -0.9508216927424498 1.50188870572601 3.212841396933151
2387 -1.9229256122764888 3.134575120549086 3.1801777498622936
2388 2.7555159508611777 0.657698435586621 2.3511419172993766
2389 0.5283832980879511 3.3297006434670458 2.240920974951035
2390 2.793804157713389 0.5420749616597351 -3.135331781218827
2391 0.8313377240854821 1.4462458599388344 2.318636179509445
2392 0.9401016722169078 2.3759410907639396 0.75567940805838
2393 3.31982544473275 -3.2784712856198825 2.1607001501385903
2394 -2.860930598657947 3.4495597271339133 2.7875383644219753
2395 -0.9032718627663382 -2.129837816180367 -1.5220601511893044
2396 -0.23250369194542114 -2.3567782225756915 -2.401305517913461
2397 -2.005331221030745 2.284403495383151 -1.3202930313990076
2398 -0.27771341008482403 -0.9190189023302985 1.840272724950567
2399 2.9441191524103063 0.829057991354613 3.378134718092543
2400 0.9594292248543742 1.9410080123670763 -0.9006451517997353
2401 0.5463404795735033 0.6250530354666934 0.4155555111746641
2402 3.3593856625833376 -2.777519330437598 -0.8371333970484842
2403 2.1999136589813717 -1.3196863854291678 1.6673370348157264
2404 3.1098539421438787 -2.710233792342697 1.9560761772364383
2405 -2.3859198166906905 0.4628097878695163 0.35085571942722144
2406 2.500588108801739 0.0015260626903028855 -1.2557030049551092
2407 -1.2637413129670467 1.9972314798711732 2.8313647883657995
2408 2.0927611660543413 -2.848471890132877 -2.97563474705723
2409 -0.37394485473220107 1.1639377171192924 -1.7517558149479737
2410 1.0255717503528423 -0.6349861744996784 0.29224263290517644
2411 0.1304781751923867 1.1388215755043545 -1.7157750513804448
2412 -3.267728641540364 -2.86983161555686 -2.0919073239608954
2413 0.6010549126339767 -0.24316549771389753 -2.8883014367320294
2414 0.24765339083836704 -1.8981040208551978 -3.1287807229970404
2415 0.2037016810477846 -0.07911180259882164 -0.07822810580914234
2416 2.2627987879138796 -3.2771088681018252 -2.6239665180193263
2417 -0.1676398162158905 1.2597788181712148 -3.474512769652548
2418 2.876951313916581 0.014025614024359648 1.2031220603992239
2419 0.6827206014048953 2.0125799145697076 -2.1942632278128533
2420 -3.3599116897775736 -1.9525212658065432 2.7342783603059093
2421 -3.2732839550775235 0.6518763949400135 1.389967399294163
2422 -1.0074995776460238 -2.946809993927922 -1.6957760547775418
2423 0.6615925336237379 -0.13092713289595967 1.0702792559940546
2424 3.381251916532997 -2.068726296034555 1.314996855847834
2425 -1.469209096166404 2.1317315437749027 0.30357597139558506
2426 -3.1698270755821407 2.354827215771884 -1.1492894329731282
2427 1.687408815365366 1.2884765152723212 1.3190737345173298
2428 -2.156154033335001 0.3832344126907883 -1.3765115166024788
2429 2.99471864988791 0.008161852249752341 -0.4592594559022261
2430 -0.07946420381902895 2.1965390350725245 2.9724798650552864
2431 0.012220662696267657 -0.17300704132692638 -0.2548854423798011
2432 2.1651621926913402 2.8722999287434314 -3.310925757548967
2433 -2.1565167293515026 1.2081069368814565 0.0849420591800083
2434 -2.85591423405027 -2.2095584676397313 1.2296186376711535
2435 3.0856085042923267 -1.8817438246323814 1.9295627258855488
2436 1.848294108889741 -0.7078443739482086 0.7291763177013508
2437 0.8074721205911318 1.7379073956058158 -2.505405604040467
2438 -0.6772469524994598 -2.7959269331694747 1.2179887975076022
2439 1.4026101345472377 -3.1161607801869757 3.35580238699977
2440 -0.6620178803174451 -2.906976290957271 3.401640313305657
2441 1.5378129799916145 -0.7530047170372416 2.996782109512991
2442 0.1384793245987876 -2.7999498218762495 2.8123430381256704
2443 0.7466106629515785 3.103650931268985 2.490164034556561
2444 -2.1250040162838912 -2.0519689982056706 -0.7939819491538515
2445 0.7723287025762723 -0.6576389293985424 0.20613709229570357
2446 -0.6181078787640458 1.4937456219831826 -2.154582071543413
2447 -0.8263477289516251 -3.4376573439240685 -1.8874549826139648
2448 -2.7585674179400055 0.6121241425941938 -2.3385083172411383
2449 1.480140500908797 -1.155734366630205 2.768536520825416
2450 -1.9148514073895817 0.4236471840349568 -0.3881019418907553
2451 -1.4170001351155734 0.678271785746862 2.092214383557677
2452 1.856437556798138 -2.255004848281514 -1.3102087195809378
2453 3.1124079513008116 -1.3092287330027697 -2.5092149467017713
2454 -2.4145287991917983 -2.83975043412063 -1.7289174935211191
2455 -2.6902105466345048 0.6491175668204637 -3.4534299647512583
2456 -2.6609793340831223 0.5680892967045064 -1.916784516646435
2457 2.5906761930846627 -1.52232109907334 0.9723057979515257
2458 -3.051697175725181 1.5218702062680516 -0.0725981963388905
2459 -0.005175375096281087 -1.8786263320992282 -1.0403760577181136
2460 -1.792178761195783 -0.18712135113713846 -2.1701383223194295
2461 0.7065154729884356 0.5321271539215893 2.6894754022169294
2462 -1.9198129409087528 0.08360700978250278 1.0585845395731448
2463 0.6078782893569228 -3.2146489653145527 2.113244123412339
2464 2.34734714365694 -1.017310969796479 -3.0268404770816795
2465 -2.8212946569278117 -1.6975015476743298 -1.9860925851970186
2466 0.40831961782505244 -0.655571735485965 0.34594281329105636
2467 2.9778283607266314 -0.11804466629952766 3.0440566625455294
2468 -1.1991223144127885 1.4981378358089077 2.4583109620349513
2469 2.3353550489873562 -1.8680163488927977 -2.656704619224294
2470 3.259451114939855 -0.646274504703848 -2.571702323041971
2471 -0.6927829711387864 -0.9230222098866234 -3.1569771123532027
2472 -3.0851100273900496 0.5291346314101867 0.8390808678465003
2473 0.14515197544836994 -1.3839785695549938 0.738496303997512
2474 -1.7277210912115604 -3.397664271787508 -1.0322255166378695
2475 -3.220124296300754 1.3353843696897965 0.7390729456747996
2476 1.043191105429863 -2.09677775716213 0.4619938852734371
2477 1.8095336308570291 -1.6089781571585031 -2.124929996388222
2478 -0.7546426903949132 -2.4936527168926843 1.7436581845693828
2479 -1.411614226245064 1.2300840164043274 2.6563805025440645
2480 2.431270613841501 -2.339260179649215 1.3548540587771887
2481 -2.897533395690797 -2.711656332629484 -1.1904450021754458
2482 2.056204585821788 -1.3122177137623048 2.6206212160969335
2483 -3.3944719788116795 -1.4681232848252534 -1.6580206414898755
2484 -1.4879879060764583 -2.0520253052926796 -1.74033516051117
2485 -0.8072143893573995 -0.21602456652766397 -3.497166243214439
2486 2.7787672038169133 -3.038648129030161 -1.9022151191142807
2487 -1.6868205313663809 -1.1316978341301391 -1.571025689319393
2488 0.3675293066890406 -1.0685881181677237 0.24618603967691532
2489 1.1762168240775022 -1.721069399086324 3.309888198622743
2490 2.7771191032435634 -3.055456571173997 -0.6528188154999945
2491 -0.500518400612368 -1.501374514654008 0.06562198321618343
2492 -2.2953207017643864 0.6071501758823902 -2.887513160072835
2493 -0.34518974515656 0.001751207248030559 2.528301576766788
2494 2.1478563454972934 2.6825140269961927 -2.5978141223285243
2495 3.371292726203773 -3.3559307943851695 1.3911773571240214
2496 -1.4338517518269835 1.2020331321407953 1.813072885955071
2497 2.5629204086179658 2.594113569753091 -0.39283719646033655
2498 2.046029996392204 0.7010695816689586 -2.304680071901413
2499 2.533693095538612 2.7406802662508225 -0.8171617386449345
2500 -1.2509427559187174 2.56074111146211 -0.706681336385015
2501 0.844379118337353 -0.8295841020748957 3.1780898597436273
2502 2.2678690941437147 -1.108925745719093 0.5207181905386008
2503 -0.8718074934837663 0.7182767271028279 3.146929820082594
2504 -2.386081973495694 -2.2625596338261227 3.20989562941364
2505 -2.9875089979305725 0.7026765283102394 -2.9795457660346467
2506 3.100603927200347 1.0009679430972482 -0.1857762823524128
2507 1.004463218604278 -2.4501511221915324 -0.7197138682004585
2508 3.26916004940057 3.3555840851598275 1.2595436726456304
2509 0.8242447520463891 -0.11335915094588576 -1.254940471256711
2510 -2.289246391059172 -1.1124769046596652 3.1227301381846444
2511 -0.7885716935800664 1.6800620538947888 1.1072670275972358
2512 2.171326632763677 2.6674771214402804 0.7429797203508438
2513 -2.5026916496802025 3.3586832179474055 -2.018967354839822
2514 1.538424114271481 2.5976246511447827 3.252271965395554
2515 3.319713549221759 1.7616053346937597 1.3057016553693344
2516 1.4825593530761427 -2.0263128312780623 1.32553824379631
2517 2.682286315422475 1.772611907096299 -0.5658567606935335
2518 0.8020928150414376 1.2970771778874037 0.5356163619033139
2519 0.3763975858799178 2.6457862986140417 2.982657577285197
2520 -1.9485817276408304 1.0159215514188484 1.9941577314073675
2521 0.9459495686189568 -3.1490311830656483 -2.361405385342047
2522 -2.7121370264794264 -1.071892089254143 0.08197977852440363
2523 2.722670575502978 2.2818326733786383 -3.003871620022997
2524 2.577539883749996 -0.8417289335852363 -0.23966360194591163
2525 1.932568844159164 -3.046785776071078 -0.25755946503949295
2526 -1.2529098075223597 -2.8166772968008766 -1.4981490785620215
2527 0.24003448959458032 1.5444077720522775 -1.9224761054515231
2528 -3.098698698038942 0.5275946622293738 2.6396367400726346
2529 -2.152966301964774 -1.406200236209763 0.9769864083494425
2530 -0.5124274268596342 -0.9559489198523047 -2.899833622514254
2531 0.20593220805238244 2.805833195984193 0.7368214710931902
2532 -2.193819819997392 -2.881534930152458 1.9109140004287406
2533 -0.14913333447510738 0.8665161262974346 3.1529016101232057
2534 1.091930609535877 0.42493987512590164 0.5760438029967994
2535 1.6113616373601003 -3.4268210882134555 0.29917843366259417
2536 -0.9514945450296025 -2.886035210916637 2.402444405793397
2537 -2.318751775166603 1.2812544964907215 -2.4094198776941482
2538 0.03071341571734762 -0.7970083252555479 -2.9771870205225097
2539 1.2198129084645009 -2.5963533018449136 -1.0896591965654527
2540 0.39064345614187923 -0.14852878243634812 2.829647792823008
2541 0.9180349725141711 -1.7017437156172683 2.8435400067536247
2542 -0.8994775959150747 -0.6459351088383921 3.132523987677159
2543 -2.2802506378054153 -2.176350386596918 -1.2192256323452957
2544 2.789466468819275 -3.1544175463374438 -2.9208547384125954
2545 -0.14003454492408304 1.5343736925238831 2.4523610992734146
2546 -0.7741257546214136 2.248301558139367 0.9364413836721315
2547 3.197085701838428 3.1253074774138225 -0.3256020066724609
2548 -2.9276688990282764 2.9330701161785906 0.7100568550712201
2549 -2.1809305212681496 -0.7929298674610158 3.2831128703321597
2550 2.6099673033835353 -2.5697405622016904 3.2655696806451564
2551 -1.5688338774864388 2.548514494165706 1.4216959690861246
2552 -0.6396715465751159 -1.050186654687263 -1.912118553438906
2553 -2.0369338604351177 -2.887616985015758 -3.4203194575221674
2554 0.17095778219804045 3.2505381128041866 0.5315270435957775
2555 0.8542695264917811 -0.6984016155145312 0.25741442113838
2556 3.0326032613851788 0.030015721347340613 0.04138136975275247
2557 -1.3857472429024047 -0.027908776423159205 2.3236781098291894
2558 2.631370873697558 -2.7165669184186574 -0.6742066783539611
2559 -0.08969676325096632 3.235524500953911 -2.6568862766121444
2560 0.20633539734660078 2.661531190377813 -2.3004210169886985
2561 -2.012120195386828 -1.086616930698545 1.746930669836201
2562 -1.7765901351338176 -1.175853122142239 -3.1735726401015825
2563 1.7427385206578427 -3.080270561715406 -2.4592894326804795
2564 -0.7216559414508102 -1.7417210964072942 2.2520350019782374
2565 2.728235618383984 -1.0763542550962724 1.2141076787793421
2566 -1.5410120694797043 -0.4582625372364241 1.5041949685841098
2567 1.7801183084399341 2.2984200734671365 -1.0476172741483698
2568 1.077377219175264 -1.9492353418633954 2.5951662844849213
2569 -2.1318302225410855 0.8719584872766396 -2.267200041906558
2570 2.676450127104624 0.5736574784993591 1.6984887534546307
2571 0.7032491173049211 1.000122969403842 -0.5458402003529818
2572 -1.8940967446708354 3.2120398210907677 -2.883745744792597
2573 0.6874186079598443 -2.076477598855875 2.532235335144728
2574 -0.9445113318486457 -3.1711473287182463 -0.34942379750381375
2575 -1.89964793636938 -0.11768090034524603 2.23716658261829
2576 1.9800724831166114 -0.5341402751252939 -0.3633225986417243
2577 -0.192846560935462 -0.22700679784571412 -1.216507220158563
2578 0.03288877647220732 1.160757513985973 0.1642059116615231
2579 0.5563955034562054 -3.3977724064027495 -2.849643994996584
2580 -0.5829438741150399 -2.685412966445774 -3.0432758589924482
2581 -2.222579489699413 -1.7959904643557505 -3.240946074229626
2582 -2.5277396826655134 -2.3813387538806614 0.052113251743873594
2583 -0.9533229301188326 0.9878189620898428 0.2818430793892975
2584 -1.6372059277285127 2.2564086829492243 -1.2212014078090876
2585 -2.7345738569771525 2.4710437800580696 0.4638449872042606
2586 -1.682518585484058 1.9640618746932743 -0.9938315535260842
2587 -1.5583023155629334 -0.38584056946782125 0.6562199127890836
2588 -0.4061334236472383 -0.014391101946817175 1.1319854069517525
2589 2.3708600318495585 -0.3163541081286974 -1.0838803884950938
2590 0.6252080651293254 -2.6226954471337014 -0.8970087587796526
2591 -0.623142293737699 -0.0712131577435018 1.1809109803276063
2592 1.0991394087850306 -2.9894516680337944 1.3788724957934202
2593 -0.6205219291021996 2.4450284298614893 -0.771763933822891
2594 0.4724707989759532 -2.096568004239451 -2.9333932167901495
2595 -3.253106430332506 0.6610155810876299 2.7367705644425433
2596 -2.9110358718943408 -1.2645262588293655 1.3691853435900936
2597 2.6644183545014744 -0.9439149300286962 -1.3449963897294548
2598 -0.22478845762901217 2.740484409628462 2.811780482888247
2599 -1.7875507388842793 1.468300429383129 -0.7282567412846201
2600 -1.8968184053433577 -1.0066842607554802 2.5586465365381645
2601 0.023464181199152372 1.9377876511172731 0.3403791110549797
2602 -0.5621569650185119 0.6449445419951862 2.5382910057291053
2603 -2.9774229232933296 -2.798278881998548 3.213011668507219
2604 0.938828733079734 1.743766432896131 -0.9224284952395801
2605 1.231024383619964 -1.024111149494912 0.3345153815074131
2606 -2.2239968414325095 2.065396851650332 -0.3501743266292323
2607 -0.6723820002011315 2.8415771359141346 -0.6160693241966799
2608 1.2054837893087882 -1.201202378062281 -0.13483952888491307
2609 -1.0688759718463956 -3.314900762400534 -1.0875224309155618
2610 1.699741366170073 0.9405236838468786 1.2711161067800565
2611 1.5424199902720226 0.5492678568638801 0.10368186470166557
2612 0.6722958592333353 -0.17844992438420473 -1.7642628300648553
2613 -1.5586971129355307 -0.10049553716876478 0.4019776011349474
2614 -3.3820052217151106 0.439529031057235 -3.369373506457007
2615 -1.747797384373638 -1.705404243468773 -3.3133158051865683
2616 -0.801820533298442 0.4693560603756316 -0.357213846897198
2617 -1.3336230937568407 -2.9068022262604116 -0.5935588001230249
2618 -1.0988841493653863 -2.4509137557937595 0.304112126240564
2619 -1.0793770695475169 0.13146648684200962 2.63109654827833
2620 -0.3531758445345537 -2.72723604146905 -0.05184147431218934
2621 2.8178280507677553 2.910786061194071 -0.10001369869648773
2622 2.909676227816144 3.286000114461064 1.3608041664642407
2623 0.21606387106261213 0.07108157046596282 -1.8353398473719247
2624 1.1317469292403126 -1.6905087856209593 -2.1107168043463993
2625 2.822523856215766 -1.2152654565445296 -1.18904747974102
2626 -2.138453752933926 0.2815547514107553 -0.8925736862113607
2627 -2.2106268473741033 -1.6083606354789999 1.3330523974869226
2628 -2.520717603672438 -2.0132331674143416 -0.3070943518673649
2629 -3.30121589899878 1.8075991109726175 -0.7958014621385406
2630 -2.125408136939611 -1.9233203853466738 2.143458628119491
2631 -1.9696032850496408 0.6625343319842815 0.5795989903175665
2632 -0.9229453243543587 -0.5878919962187362 2.843787017359048
2633 3.252029649443465 -0.8061645788443726 2.3098618034722564
2634 -1.1960424405052454 -2.104057188418265 2.6892732871030987
2635 1.603942814481118 3.378407781955224 -2.7020348052677425
2636 2.6725063718983932 -3.4226960107806073 0.4223101121682227
2637 -0.7680114888300772 1.2001996100611414 -1.3201148126364919
2638 2.717609331517229 0.26595868734759914 -0.028852401230337898
2639 1.6357288193065433 -2.209158053093791 1.0386814377550988
2640 -1.7097392367029918 1.233072091583995 -2.488675741092061
2641 -3.2473237936896093 0.9599270087044545 2.1096867317619297
2642 -2.0760985364684488 3.2593023824411427 2.4978128876127705
2643 1.8565887757452375 0.2865319956126852 -0.28848406682572625
2644 -1.9498565133874854 0.3527109280000013 -2.252587672837191
2645 -0.8788239714170188 0.4443081530757835 0.8255810503738857
2646 1.6369673399633344 -2.155454795025442 -2.98294624099701
2647 1.3144570230707917 3.245956445869259 -0.34479992281255856
2648 -0.31393520936427227 -0.6768057206619044 3.342986585261504
2649 -1.5153590156843104 1.608935242585809 2.9608232796699463
2650 -2.1202846496457983 1.1386768793104667 2.7730204914838623
2651 -2.6805057597940385 -2.339437370369105 -1.623190370415124
2652 2.5652022700770605 -0.5788677284786091 2.259156507839925
2653 -2.1532958879187793 -0.024846891650213452 -1.580860299574069
2654 1.1741421212642422 -1.9870772138581512 3.2916352341270745
2655 0.5105416602144941 1.0555852664133976 -2.6861182883941574
2656 0.2739309982537315 -3.1754424972537305 -3.331276637995929
2657 1.8414592754535213 2.0710861136630196 -1.6206103089177961
2658 -2.5166354591043523 -2.611674146973171 -2.521037746276647
2659 -0.4198915215217101 -2.863494451432593 0.6062430095273244
2660 -2.962705245920266 2.3370681532470097 -2.0355609264067787
2661 -0.5215542700503337 -2.0953040081063095 -2.4515236276904586
2662 -1.6951564713939995 -2.8197524075516776 2.1841003210306575
2663 2.8662910661934333 0.7855584430705995 -1.044803569822456
2664 -0.07762548996298002 -1.5037195540053714 2.176772446085654
2665 -2.6413270843338545 -1.3303638971784777 2.148713376153567
2666 3.298493241202256 -1.9321833986389612 -1.4824118310525067
2667 1.7491833875549938 1.4280402756396626 0.8483776990133018
2668 -2.7792094954890705 -0.28404954764568713 2.0439187134906933
2669 -0.1264658550409562 1.2000969314840362 -3.0458336580494683
2670 3.233423073734309 -2.095181213409864 -0.3877131645295212
2671 -1.8035234983907897 2.9216058714453768 1.8102208830129705
2672 3.0742382755074478 0.7985462469750653 2.699377972856841
2673 -1.584215560823748 0.09462816492134644 -0.5678818274173874
2674 1.3703187549242244 0.8982753053334669 -2.885525267241418
2675 -1.5381972952160112 -1.5952828021112395 -0.33034534378406444
2676 0.39951794870636964 -3.250430668891791 2.8314412985851605
2677 3.378668422855743 2.955426785133147 2.7405504032473016
2678 -1.6696253421649292 -2.80174081392916 0.39395749900540633
2679 0.23822775785457287 -1.1385146880998738 1.5100856915016845
2680 -3.0250687189537904 -0.7794476169487534 1.49604960316674
2681 3.295051209469805 2.5039295358993403 -0.48161447160955095
2682 -2.0821716257687872 -1.9212468588204306 2.3896965869992957
2683 -2.029503567952045 -2.579371745701945 0.5704714832498103
2684 -2.073458194289888 -0.8093979372600363 3.332442699717307
2685 1.2118729549873128 2.37093807781958 -0.2815054653344159
2686 -2.3124772990835734 2.9258069209059925 3.2102144321995403
2687 2.370609424706297 2.3923961086111296 0.48698542425489755
2688 -0.3206435935575332 -2.693347280190689 2.018802500976264
2689 -0.0916766992258228 -2.358441534312657 -2.67376798693496
2690 0.2243134168372242 0.3071079336043627 -0.5039179176049757
2691 -3.2181468998167717 -0.03403529171299166 3.1659027366866512
2692 -1.8606783918499736 -2.62347114880128 -0.09281773870069056
2693 -0.7205046465046986 -3.1540203577183634 -3.1660100910626627
2694 -2.6468847794493846 2.151316925635643 -2.7187258249629602
2695 -1.0252827041028294 2.6831804822155974 1.6825942766547666
2696 -3.448452463559616 -2.105844409907314 0.3342596148147982
2697 0.3980368293261439 -0.46078619818832234 0.6132521912583684
2698 -2.811363942412508 -0.8888900538769012 3.0044021129215994
2699 -3.285508384157806 2.81703104876919 2.0801124430169446
2700 -0.8404473786806328 1.8141862344766109 -0.8172883071279462
2701 -3.378179249900364 2.4562970596751548 1.761076558924435
2702 0.6694156705206897 -0.14085030306083496 0.38846565984929843
2703 -2.0939547828598437 0.7396616444051959 2.6866022970080174
2704 -1.7631608723232841 3.0672237812807337 -0.7189521466235073
2705 2.2300056461446367 -0.7750847007265084 -1.3041666584762102
2706 0.850761835384862 2.6341742123276846 1.598048621537789
2707 1.257843534241657 -0.12043743067673272 -2.5676118574517552
2708 -1.1513725317573347 1.2270159956026687 -0.4629137961617524
2709 0.7883793161697772 -0.8024507313526115 2.442156335664821
2710 0.7320241141879068 0.17218243407962822 1.7942788906630343
2711 -1.8760571554173175 1.8924195692956578 -0.8834799756420857
2712 -1.628131727410197 2.5109950150492804 0.6159175512892903
2713 0.46111525605391207 0.8305473640801815 0.727204222565705
2714 2.265991543479885 1.9386026149895805 0.19606796585961506
2715 3.167695948356105 0.5417383212063323 -1.8725434080226684
2716 -1.2850943093847527 2.9940533114676264 1.3903579942605406
2717 -1.3634744512689096 0.5928586366798377 -0.8607559635316345
2718 -0.34440623165410794 -0.6711463041124025 1.5709379032030146
2719 2.3744957352109517 -1.4974279750313868 -2.811931314766023
2720 -3.4507388045774863 0.9918489439684638 -1.1932962220004362
2721 2.5806843019763703 -3.3591275912221867 3.0282487056841347
2722 3.0240211841049627 1.1258368170553155 1.511932848842621
2723 0.3372868160189994 2.778002232274952 -3.3309858630680704
2724 -0.19219098556528771 -3.0501604984045323 -1.610881935105614
2725 1.8119403108707786 -2.684134007297237 -2.3099228701484797
2726 -2.5335633604458323 -3.370028578168471 -0.2463225885298739
2727 0.7462529041178432 -2.909201787320681 0.6012453011540052
2728 3.0099682796997342 0.2426245786680192 2.2749380127456105
2729 0.09968706748039607 2.6855097754344555 -0.6932014352240824
2730 -0.9821696966233663 0.6095274680569431 2.464114049958419
2731 2.977991149181649 2.617940897190184 -1.3278044264548627
2732 -1.949049590162046 0.07326063088519388 0.18460625094916377
2733 -2.610325766075194 0.6559565607677481 0.7582697306457388
2734 -1.5895541442837304 0.3382141089881378 3.2447362421460273
2735 1.2394934181065098 2.90086199511744 -0.7968848837124288
2736 0.42763889133554217 -1.229652100969421 -0.7607237550614164
2737 -0.8342655424512632 1.9017406384204147 -3.400474087226368
2738 1.518281613875228 3.1771396946807364 -1.190290067450455
2739 -2.2605119647988032 -2.622287894298056 -0.9679727236249388
2740 -2.953329999915947 0.7306248564594243 3.0608057102517754
2741 -3.4467609306023594 -1.3590678914435046 -2.750709562024564
2742 1.2389974374915351 1.4856202727813244 -0.3032366364166836
2743 -0.7509325812399723 -2.4241884116446313 -0.368819539338511
2744 -2.6107706958336374 0.098726584145419 -0.8927946638126146
2745 0.9961070818897151 2.4430530604584204 0.6317248765006708
2746 3.148060089280173 2.7156695618477475 0.9909022447015204
2747 -1.9329179577860667 1.2901315059871572 1.4516847845985479
2748 -1.8290757975634588 2.5477910357551954 3.1039394107146223
2749 1.7480775005104363 -3.31719433516653 1.888626932215835
2750 -1.0098472177196407 -0.879369869975883 -3.0867744275743987
2751 0.2916525485022344 -2.9196398328149957 -1.8133734833403719
2752 -3.3976143635117313 1.0834528497099607 1.9971544498795804
2753 2.866865616335725 -3.3993862625217406 -2.290905892733204
2754 -1.2676297246748114 -1.0689638306863105 0.8522902133254477
2755 0.6920782868942695 0.11099704310915762 -2.2843250663931314
2756 -1.3949530036724702 -2.493631621071281 2.0982156548959057
2757 -1.0907621646666663 2.5618980783675367 -2.0236519775044126
2758 -1.0682798005819238 -0.21575479396278824 1.0369012546519263
2759 2.974245715966457 1.9547851113052503 2.267809075328139
2760 -2.0643880578015126 -0.6231123949677635 -0.8455745068035208
2761 -1.255728523153235 -1.745899590161524 1.231135210019796
2762 0.8918220737755486 0.6631534907974956 -2.8556077830627777
2763 2.9942372004459736 -1.1628544448339515 0.7533582006042483
2764 -1.0891858691646101 1.3718786872780613 -1.8436294932543462
2765 0.22175805414454577 -1.1166460010085772 2.2597725374074047
2766 1.2796085791673057 -1.1126644628188245 -0.02955984280119451
2767 -3.333537188539063 -1.6013652565898544 1.2524093371986986
2768 -1.430555054383843 1.243991270695238 1.091651269588984
2769 2.7040517825223684 0.7874803574798368 -3.3467104614637737
2770 -1.4887462277005252 -0.9557278939104882 0.8149493815911905
2771 2.8888264212026087 -1.1014759623212869 1.1565472337837932
2772 -0.06078481433217859 -2.2113676421894892 -1.4943601259499106
2773 1.6346207794956098 -0.06986973484373817 2.997706236043166
2774 1.8288649701718784 -1.9802685487796765 0.0728931579042714
2775 2.2593362307786604 0.8140336221178661 0.008922003452917673
2776 -0.19466323471778985 -3.0770251632770167 -3.2795136669732092
2777 -0.18705041149404109 0.2990142345800178 1.8793720509890284
2778 2.6195668947149513 -0.40561194647620546 0.5525012627032441
2779 0.41204191524711037 -0.38125922480330926 1.5271304803228927
2780 -0.30218641596762863 3.0054396376597636 -1.019382953564294
2781 -1.917005398393185 -1.174957245836693 -1.9579885198695086
2782 2.145441376688455 -3.3023443754559865 2.3265387399503137
2783 2.2650500046791566 -0.04443106177419162 1.4618071565526962
2784 2.200722270903789 -1.570754752441455 -3.329682956004953
2785 0.9436546036447653 -0.19628066307220718 3.065508876356078
2786 -0.5283974245086831 0.5437750605646376 -2.2445873806700956
2787 2.0887014837342206 -1.8725079090195311 -2.018606460314943
2788 0.683273920372208 -2.5291971488764573 -0.4710254424255406
2789 2.8700300314413845 1.3400071035437806 2.3056116206640827
2790 -3.421820162102168 2.5781598789870697 1.380956567007661
2791 -0.19705939904787917 -1.825132217862474 -1.6563796405337803
2792 -1.5905027311384472 -1.7632762111615348 -0.14814604856226785
2793 -3.2490090359283545 0.3188785962714073 -3.374820205196006
2794 -3.3213049347330896 3.2856947277925634 3.148874902512006
2795 2.622100523490803 0.6528600480386487 -2.8398883925569898
2796 -2.7174410367692263 -0.2472348739281188 -2.075262733764449
2797 -3.4022010707559587 0.12241340490402575 2.731446834426015
2798 -2.4178081037006103 -2.589385525416863 -1.634216820456895
2799 -2.818027269978968 -2.148164886758097 1.8865659581222785
2800 -1.045116440436627 1.5313886499088265 0.7276811827807522
2801 3.3615574042414305 -0.8805796505570128 -2.657443234012449
2802 -2.2337431560387264 -2.5647098436697044 -2.152302108257066
2803 2.8894728569837973 2.8424657385764003 0.47726667343732415
2804 2.43321878039879 2.7207572545665033 -3.4694043871731135
2805 -1.2356225102134328 -2.9386593142714 -3.121392538366466
2806 -0.19575975658407105 -0.7441547492513767 -0.5173077312939394
2807 0.1225020565291632 -1.4224198000686314 -1.7177488996671513
2808 -1.8386744285290364 0.39980328867580023 0.2684082219643495
2809 0.9463929579248141 -2.617691593063557 0.1543129156756576
2810 0.3817193339333915 2.1192476773419715 -1.8916329607355298
2811 3.149903501838881 -0.905617931639548 -1.312860502359251
2812 0.06812163741820475 -1.861133290911592 2.295579294286749
2813 0.9824822525001955 1.833793137555704 -3.4778829866455925
2814 1.599350100116345 2.3164066621281094 -3.258018484848153
2815 1.2058429403507192 -2.085655289872744 0.5382808324678884
2816 -3.2867769500854407 2.25835692362871 -3.0806426753903127
2817 -0.4625555966441684 -0.16533978662998738 -2.8847207481532786
2818 -1.8580539279347885 -0.03833296751230833 0.14191031295071768
2819 -0.4476904579970514 0.5276844080947022 -2.7727089748872333
2820 -1.7077974478772266 -0.7348054814652571 -2.5603669413571284
2821 2.96195622048927 3.0263688323674707 -2.218335651569101
2822 0.3764261777111879 3.126329206762058 3.00519420203981
2823 3.106428952071003 2.01229831468058 -0.006408090836266686
2824 -1.7814924321279026 -0.520305019267926 -3.1381295041548323
2825 2.254939653411509 3.048507021316494 3.0608689171483814
2826 -2.384442619341422 -2.392752257136943 2.005089282479865
2827 -2.1864923414449997 2.6194210497591626 2.7870063797561726
2828 -2.9236336673645855 1.546163952454898 -0.0891699727576424
2829 -1.6988427035338507 -2.487915720186042 1.2754992035757244
2830 -0.9186213738480604 2.877699427757366 -2.5307039863527074
2831 3.2165188850500064 -2.4549970154174834 0.8838123656935312
2832 -2.409351325157968 1.1296019699972362 2.506518081859848
2833 2.8299945420727273 -0.22812878229752973 0.6884135187907167
2834 0.8568537098277246 1.2097408704473387 -0.13635439320035306
2835 1.1536173727053742 -0.9113025658490682 0.03535496776751786
2836 1.1390816943268007 -2.987792500694373 1.5816800752885056
2837 2.9798656640581638 -0.4806099409165328 -0.37057711194932685
2838 2.45322880187261 -0.08533103830991869 -0.7943555991417787
2839 1.4130978290217755 0.13290841491699737 -0.8172361895563399
2840 -2.5022392239118934 -2.878805841146857 -0.6662183972052542
2841 2.6759595058466608 -0.7515095305533765 0.4435634496826165
2842 -3.4398005083851912 -2.0272277376516477 -0.2098842299765695
2843 -2.7769530353841323 3.036753068370497 -0.7080929871544596
2844 -2.1191219431042705 -0.08182769785360892 2.720651661747979
2845 3.0067454820855883 1.4427008660313116 -1.8964406359128987
2846 -1.5249439952750838 -0.309613848168632 1.4683971837131342
2847 2.22803717977387 0.7444233734894165 -0.33147066695738536
2848 2.248324795315551 2.6038585791641253 -2.705371390120218
2849 1.9601605446437713 -3.000275458324732 -0.598254612016444
2850 3.027059040395724 -3.1825482924326582 1.814304313440015
2851 2.497408727457981 1.9312996064298427 2.0270836260288982
2852 0.6751025896274558 -1.4506635051672083 1.1189081826750782
2853 -2.876209706544684 2.719658995662682 -1.1657283630811723
2854 2.226489430985225 2.414227376884474 0.6077741968393132
2855 2.0098464860608303 1.586805113619879 -2.1829171531956213
2856 0.474543616507282 -1.8622461228836056 -2.5663787122654957
2857 -1.1880148069160923 1.322995547247826 0.14126836961912229
2858 2.6045769149542495 -3.196840737215078 -3.0948630443942897
2859 2.7603591273475256 -0.9914880408196288 1.8954494774811088
2860 2.92539947912151 -2.360789664237305 -0.6145607892722015
2861 -1.1233876291386873 0.9613701066210504 -1.3189844781582087
2862 0.9530274874069385 -1.8424261636100736 -1.646137931844745
2863 -2.475716632972018 -0.03870622110762423 0.7893416100118892
2864 1.582686847240133 -0.9147054868438853 -1.791902403819696
2865 -2.409813483492828 0.2828113095427052 -0.5357145831357482
2866 2.1902444604628966 2.267001479474393 -3.1263865212937816
2867 -1.0811771335126263 -2.4393906805961825 0.192711712843677
2868 2.124787297789114 2.5204797137548405 0.8490458042572337
2869 1.5289308657317964 2.2207993360356433 2.393794213438146
2870 -2.367740745578608 1.4874611329583405 2.9532824645478533
2871 2.6346205905595155 3.4564930657453568 1.664184356798601
2872 -1.4322741769113774 0.03351684458319112 -3.4015806671523188
2873 -3.238598254511197 2.2752700359808196 -2.5708467885470467
2874 -0.15522366201997514 2.3169481827755085 -1.0773854375526584
2875 -0.9454230219634835 2.2681903318147363 3.0132458157705853
2876 0.015811454452547558 -2.108910255383667 -2.748473991487962
2877 -2.7119953950771905 1.308506888122885 -1.1449689694327263
2878 -1.8263096700189967 0.593165360770563 -2.626348644250114
2879 1.3201914641730383 2.734845421800604 -1.9935297839350965
2880 -0.015999049369869626 3.066900937223821 0.7757122623911423
2881 0.8974890121165501 -0.9824764415295376 1.0979003282043376
2882 -2.999291645834372 3.372142941757619 2.736067570203422
2883 -0.8848511017333931 2.956896028848559 -0.24868836598247887
2884 2.508858099411516 0.5811687704286822 3.368091685892004
2885 -1.7369056046931264 1.4144205349000052 0.3246427143393625
2886 -2.0570065699501745 -1.1351266012122854 3.0880262228944306
2887 -2.718100199009126 2.515634307157216 2.460750800451759
2888 1.8174924790486815 0.6619984027285926 -1.507059536504889
2889 2.7374662616528354 1.8075687466540618 -1.3061345640964535
2890 2.379694443642464 2.828810950929049 -0.6355016888414027
2891 -0.12115853825669201 0.4310119686106563 -1.180848101802
2892 -2.7455982025931096 -2.8768166753472983 -1.8378311717103244
2893 0.7842856149845887 -0.3982418154343122 -0.15038683987960147
2894 0.6142381348730377 -0.13529247903713823 -3.0910486034150115
2895 -2.337376069303207 -0.3055557481962522 0.4658386841258621
2896 -2.7779767918132814 -0.32811228926254654 1.9967990275063585
2897 -3.1067182104136224 -2.762964821798643 1.5558367240354198
2898 -2.285661487183386 -3.1473377261540105 -1.5822929655973133
2899 -2.1425623107852725 0.4360676792133702 0.742026315553414
2900 2.2355473405340334 2.395014745877201 2.9741951138924256
2901 1.1575899743365028 -3.3508316868482946 -2.8772804266148735
2902 -1.381250355645702 -0.5764738619365825 0.9686446384500061
2903 -2.2984646559213617 3.1323484478986585 0.36001288181861857
2904 -2.771186470366861 3.0655486841146713 -1.189492322486451
2905 -2.6942213018601335 2.4473992250644647 -2.450035798640181
2906 2.548672956008264 -1.5588703412085303 2.631891376695074
2907 -0.8359035914103514 2.053869677173069 -0.30767050691632564
2908 0.8567551401984174 -0.44691888931542156 -1.6228396821943065
2909 1.5385147238215235 -2.8002051148313534 -1.4783656583082072
2910 0.546163965621486 -2.3416169560891134 3.2687392746363937
2911 3.2576010184927275 2.8626768761257626 1.0513362621980833
2912 3.358760970387088 0.5646878742671213 3.2018488400709852
2913 0.1841919908395493 -2.7053648761182574 0.7394974789386414
2914 1.2576171972833923 2.996221785303706 3.2323753895534244
2915 1.1117781003710112 1.807903611397475 -2.598767295091254
2916 1.1927270500695837 -1.0618800916946238 2.2567153964549758
2917 -1.656828093534487 -2.2602217617688014 0.9782844555746941
2918 0.5417388673225559 -0.5864948572861051 -1.3573168360573533
2919 0.32660431552365654 3.1755327190351172 -0.5159118492159287
2920 2.820978721040192 0.49846554172294016 -2.484178463888155
2921 3.1313694369732294 -0.975944819436514 0.14360126904393083
2922 0.28939070648135534 0.5898081635023071 3.235577130018616
2923 -0.442205689453861 2.741031157502002 -1.8404369536095186
2924 -1.4868639235480658 2.9973401023181925 1.2658160314120308
2925 2.4332114358560197 2.597317524216038 -1.9096103260172095
2926 -1.405382425210464 2.1573969018547627 2.5775718602472497
2927 -0.251026022945242 -2.2298940273511376 -1.4356142285669038
2928 -0.6838216202518914 -2.565096271679609 -1.7262931971865498
2929 -0.10788889276028718 1.9914006734692618 1.7228642209734573
2930 2.06016776748867 3.010636299674136 3.2724618395428973
2931 -3.3842953332968437 -3.4468539554370357 2.7212982103238126
2932 0.03187844905127535 -1.9784065025455402 -3.235218152657886
2933 -3.1484244559658454 2.1920224828750636 3.1905362912450856
2934 -3.0867953405282855 -0.1131053887752559 3.010040330523165
2935 1.5068566893554183 -1.982545924234586 3.3212707284693836
2936 0.3035729766768032 -3.273433235435942 -3.1339485643681484
2937 3.3169499128276083 -3.162604700559601 -2.1082662794426112
2938 2.4842690729564003 2.5556695516003587 -2.895934250389656
2939 3.456339244332521 0.3557778466368387 0.8481825417177439
2940 0.861486311601833 2.942129678974632 0.7186303502902696
2941 -3.4209903190047726 2.683923869828607 0.33530094142700423
2942 -2.8625002199396974 -2.168951734623246 -1.4427624345325212
2943 -3.171743234241756 -2.1672334822258343 -0.24691228538169688
2944 -2.24407761093066 -3.2382813739361946 -0.5964925888511889
2945 -1.9621399888533095 1.5254729800383824 -1.8071197002407255
2946 -2.1008489108298245 2.522028903092243 -0.7965468961686887
2947 -0.8125089345650943 0.7677122837432119 -3.394911023085714
2948 -1.8731620036892767 2.1063033477165662 2.0155621782969195
2949 0.8138558173407037 -1.702572910951128 2.7486629776498863
2950 3.1850276448601846 1.165973576679363 -2.138586556522859
2951 -1.8972012464835373 -0.5203908302114805 2.340350441063008
2952 -0.9056414945731133 -0.4320127514260356 -0.24074122265231984
2953 -2.337593421362286 2.9621126684059926 -2.5417854801814577
2954 -3.091831582775195 -1.7087751501205073 2.318196360959792
2955 0.46877578174457313 -1.9123823501934152 -0.8800053365889872
2956 1.4044910497142058 0.8135625368924944 -0.9879029058260049
2957 1.1946169501357384 3.0188524260066534 2.94680763939287
2958 -2.377198686171563 1.704056478542355 2.980702614044843
2959 -0.20212654058223348 2.9805781702407312 3.296907020598021
2960 -0.8557012785754631 1.507956222970864 1.379036628116071
2961 2.1380500176942885 -2.95623446673822 -0.9166876860739214
2962 0.826941401311958 -3.235706259289746 1.159232432781497
2963 -3.375576574687975 -2.2454719604807134 -0.2671663429050048
2964 3.38120127173719 -2.919913379166438 0.5098374615106394
2965 3.1148005190930634 -2.621568689857031 -2.72171263039719
2966 -2.7795903224391534 0.2360963758641051 3.286705063964747
2967 0.6976254244309857 3.372579466703624 3.152037864178092
2968 0.41636145709412375 3.010235862569266 -3.4576845820003506
2969 1.9594177693445511 -1.6426909652353694 -1.2383285141625453
2970 0.0797375490543954 -0.41223168052355086 0.02590270557928507
2971 1.451113988079977 2.3656821406076713 1.3511159701047681
2972 -3.4372494512252656 -0.6758368920023855 -1.1360235548178812
2973 3.184479817380753 -1.1206583965906207 -2.8902197481580205
2974 2.610115621896895 -0.07695130817823191 1.6296792533504585
2975 -0.02037205265612248 -1.2231205594440013 -1.7163769139404552
2976 0.4581762594358324 -0.12023748122009509 0.792938660259639
2977 -0.24802990067329805 -0.3189983175522447 2.9198231447117635
2978 0.8608944619836346 -0.08438238055571037 1.30832632876029
2979 -2.849486279904528 2.0144997567801726 2.389706909320706
2980 -1.8560163120009523 -0.39564433522102266 1.9812362636452432
2981 -1.683320429727748 2.328874618070624 -1.3302171651524253
2982 -0.975722038864416 -1.7559601538726701 -1.759851718301961
2983 3.371813550645084 -1.523138882811784 1.069223452994781
2984 -0.5222201451829899 0.5547415844226328 2.1314627886676782
2985 -2.8832472190679606 2.0921620670952743 -0.3529891234518547
2986 0.4642591167524668 -1.6962216636097 -1.237194531583158
2987 -1.623530659796252 -3.207315279833957 0.7978154721092597
2988 -1.3319068265451883 -1.744317094176672 0.14532733327621625
2989 1.6165343643507084 0.4627477604826308 -0.6916385719529471
2990 -2.3979445928031176 -0.9371726010925626 1.2420544632532355
2991 -2.44730961734035 -0.13060317378340947 -0.4056444129147321
2992 1.3369817270427318 1.1799100576742627 -3.2121025755471058
2993 -2.2043704732203158 -0.2680473358458975 1.0856179645714472
2994 -1.807843017678874 -0.46951006800598194 -0.674033889847948
2995 2.8143596573153107 -0.016866905742002957 1.0453778624932384
2996 0.10579976059210415 1.6109758008485393 2.652963633685662
2997 0.3695914989647683 -1.0128449077050259 2.8272203585944955
2998 1.6443747351333804 -2.2320446957467563 -2.9783755860421826
2999 2.0057056399365476 1.1986490381836559 0.30224153661771136
3000 2.0851455068509357 0.6485288754523373 0.4938431582268472
3001 -2.7146847771448885 -2.367710682450761 0.7158621473243305
3002 -1.5012462527720931 -3.4225150656103756 -3.457248885289313
3003 2.361467918211688 1.0065948715661566 -2.5038521349519463
3004 -2.250909875871667 -0.41618218729498785 2.8367801334160676
3005 3.139307269911082 0.9418283698426908 2.4368602177774976
3006 1.6893289379510927 -1.043545554111365 -1.0264127509338221
3007 -2.4148337379044214 -1.0441509036372725 2.6408867142199943
3008 -1.9067642278957435 -2.069216533790724 -0.0037246385442153487
3009 1.7950633991544502 -2.5855058085649105 1.2858440484658562
3010 -0.07042514386682665 1.8605212338941806 2.816145867701876
3011 2.3744270883897305 -2.6511750992943353 -2.0259139484334576
3012 2.439001636185569 3.023351833418005 2.4405987930782462
3013 2.2372237557860957 2.887707993136959 -0.4136530164358455
3014 -1.7702326550825527 1.8637469963961493 1.6659004499842287
3015 -0.2727139002198818 0.059289715296390856 0.6793800502302245
3016 1.286846031479108 2.8752204914937405 -2.669958927871622
3017 1.9568288325199785 3.289979138941575 -0.9707761249656666
3018 -1.6251650187590823 -2.99316847396797 1.1968554219327006
3019 -0.830105002381885 2.6208928490789694 -0.15928034639861027
3020 3.396572487731401 -0.6419516853667081 0.874877540884542
3021 -0.3214534720026836 -2.4635653607552923 2.2104262174450917
3022 2.4005457971539936 0.32158126877104365 0.5247696549631239
3023 -1.985889645897545 -3.1548579707554776 -3.4023634587690403
3024 -2.553568009671825 -0.4736489160536881 -1.0286082922621052
3025 2.2089299988692765 -2.03756030726165 -0.8517698268270778
3026 -1.5699050560072396 -1.6133739578539532 0.12259692409801592
3027 0.22529335093526304 2.9354513722792555 -0.792398702278931
3028 -0.3008589647896606 -2.3669063083843085 0.3935681351120158
3029 0.6148932751781508 -2.9657583180765674 -1.8078542383081235
3030 -0.6048212625075572 3.3393618915743684 -1.4793894501871019
3031 -2.819297195887756 -2.7296962151490805 0.12424632664384451
3032 0.2639840445321873 2.6637181431995223 -0.14782731023044976
3033 2.1080261069336093 -2.3566760531858426 -0.6841445827222364
3034 -1.0191481159390872 1.97663664716503 2.729235173131544
3035 1.9350273613692583 -3.2507138672421796 -1.9282733763939899
3036 3.277135674990057 -1.0121661030832971 0.3944806889115674
3037 2.110776037166985 2.3371745379338944 -0.24755349393674475
3038 0.8205391514545619 -0.10704803593930952 1.0054023412035105
3039 -0.45445262267726305 -2.392745795615111 2.1136880799141275
3040 2.888219595678198 2.5410163959871968 -0.026159593428122237
3041 -1.5511817636216758 1.6372998570989004 2.1562907270726734
3042 -0.8423548585979564 -2.5620108418301015 1.685594968721203
3043 -1.4607522177199337 -1.0683063506979802 -1.938852569884917
3044 -1.5097574885695584 -1.1360611693039249 1.222149253786672
3045 2.1203540814984154 -2.7815417486295657 0.7651287859263924
3046 2.9593163810525582 0.18281426077482626 0.5450738448722788
3047 0.1521109538940756 -2.076403882721017 -3.149522059834102
3048 -2.360722862546344 1.7850452060783222 0.7794650240355848
3049 1.6838137084082219 3.1518541483991487 2.919210937271413
3050 -2.507771514450564 1.029849704946209 0.7806819654653483
3051 1.3748348978382579 0.6733400525730188 2.253028613232714
3052 -1.3342534482442923 0.3402388502188724 2.6710397393999687
3053 -0.33629659635771275 -2.786595348361058 -1.122268218800871
3054 -0.9335398450262503 1.2883153832872396 -1.3890715387573138
3055 -0.48043950028262766 -3.149815876077821 -1.7083318938623828
3056 -2.743260759155442 1.80507281384872 -1.7310503822579106
3057 2.9865552953359433 1.220751368103539 -1.9419410709714857
3058 1.9474405377865338 -2.2435920282385133 -3.2746675159309255
3059 -1.7862435262884095 2.6765091075568606 0.2880719638766365
3060 -0.7589114520925447 1.8890186399320088 -2.6772640021847236
3061 -3.16757909763454 -1.3876342601275609 1.5836451127020499
3062 1.4027271058172741 -1.1502246446887365 -1.5194294384507614
3063 2.457658463520625 -1.7637569290496278 -1.3068671202007955
3064 -3.011671528495014 2.924589270481314 -3.4134273082925386
3065 -1.6446661655786003 1.4448716602143834 -0.015425168723422658
3066 -1.0760220637180875 1.1534136737645817 1.3089638344282628
3067 0.9443670081800218 -2.0643065860969734 -0.5306874321372621
3068 -3.2875868639803367 2.4875430391879094 0.9387142408958143
3069 -0.12722978094754964 2.2022031664382062 1.2796730985311244
3070 0.024986406170883657 -0.16099514314030516 0.9286576475561877
3071 -3.0514866751351373 -1.8609508504066323 -1.558847612392982
3072 -2.576665997263323 -1.1220758482275457 0.9694884841969582
3073 -1.9573581339816368 -1.1543458742128232 -1.5778893143945394
3074 2.662558718850047 2.4047110441149213 -0.15702776965217885
3075 -0.2685969762285472 0.045386502276491256 2.312030925071871
3076 0.6568619165254369 3.410044978416258 3.0507861264466736
3077 1.1717058954987927 -1.4084968125360322 -3.018049539567835
3078 -0.4068018060437277 2.593514907338307 3.3868525453399108
3079 2.145157827063313 -1.1472584516702866 -0.11155469212917017
3080 2.7199248637893425 -2.3411172564735434 -2.1742182335535354
3081 1.3424920967477358 -3.0971689398641153 -2.721447562980382
3082 1.6753977518591214 0.11896189842135672 0.0876131685151436
3083 0.513193520337707 -2.8195329575121937 -1.0483073388984183
3084 3.3208679121822264 0.4008701906681857 -2.562283412619046
3085 -1.5653583844167391 -1.3252137452304802 -1.261840989849032
3086 -0.6142863220539918 3.4363089860200864 1.5448756175431104
3087 0.35004248209772054 2.62064333765512 2.5678856265146077
3088 3.0493509974508335 -2.239667638261554 0.3962145649787264
3089 -3.351491269783217 1.1553881085834448 -0.11023253263142611
3090 -2.7413583517744593 -0.8246887016677041 2.4066308209544416
3091 -1.1647168988722942 -1.589218952303715 -2.225788731793259
3092 -0.3148126260204139 -1.582138513361084 -0.876827473138885
3093 -0.5507937327243553 -2.152935549178238 -2.166208128252286
3094 -2.445757575909769 -1.7282607441697704 0.0969274312887238
3095 -2.1181949354765806 1.656980553657751 0.7359430618441679
3096 -3.115835121230114 3.1853179767983524 -2.151991987436161
3097 1.1809690204028298 2.021345031777856 -0.2137322547558545
3098 1.7563392345521647 -2.8763197665935274 -0.4069902206155714
3099 -0.5198948803443261 -1.8887591133878006 1.6755806637055082
3100 3.2464352219459673 2.0581551002511853 2.5103904316101007
3101 -1.2944679408142896 -2.2930717069214936 2.5256141573259208
3102 -1.4953753559304845 -1.640214478226903 -1.140238204090034
3103 1.5559142356891524 -1.0361970441916524 -2.092687054008669
3104 1.3375409467813542 -3.262692742379317 -2.5567980736572204
3105 0.6575753909984733 1.5600014996549212 -2.8254662822728647
3106 -2.549690065307158 2.4166217590591654 -0.6740714343513624
3107 2.183349188432941 -2.890563951381215 2.415652626548594
3108 -1.7907286957928017 3.422014456148078 -3.399335841009382
3109 -0.11332763786543001 0.551569847333131 -2.7309911598270915
3110 0.4523684405826636 -0.8423863168924419 2.5531041009268116
3111 -3.159092982815969 2.8244080248347103 1.492268652529048
3112 2.0349541036232757 1.4075605998211174 2.6816898936137
3113 -1.2774710381541312 -0.3750121127012655 2.7117764763020955
3114 -0.8237023625772858 -0.5012115316332902 -0.5862886115824089
3115 3.4391986026216093 2.942600499938262 1.7110138124920795
3116 -3.3299223199600356 -3.1326093107307003 -3.1871759933906083
3117 1.494427418753589 -3.2601627230321193 -1.5589897465370661
3118 1.9551899166534723 3.4275380647217526 -0.5332046992441153
3119 2.8496361859026185 -2.3048356631411897 -1.4114727680422319
3120 -3.2598585208395265 -2.0900979938044766 1.997505060755499
3121 1.8388781343503018 0.21407443307668245 -0.03875026672218272
3122 1.3792108627896293 -1.9075662186403417 -2.9837360065455245
3123 1.8822763962654054 2.9346927187166605 0.2983198182624971
3124 -1.54083462738889 2.52400668307802 -2.1595210429107894
3125 -0.7871858179984592 -2.710344940186324 0.08801436940089798
3126 0.335472333675498 -0.03518462080956855 -2.309462442405751
3127 -1.7158587619475107 2.192778410029943 2.053995036225161
3128 3.1293829782451614 0.2411657056145809 -1.482227975780423
3129 -2.0814655280655643 3.025432765718399 2.811305598094676
3130 -2.848234990893872 2.2828007382572717 -0.5750141518969256
3131 -0.8506827225289605 2.806374014082086 2.9056467688422165
3132 -2.0975026772011063 3.3965417126501967 -2.436058450533883
3133 2.162010478262758 -1.6536331576769894 1.7152639050645373
3134 -1.1056611900479807 1.2993395419863558 -2.965057068237256
3135 -2.533213239420946 2.5144554870949105 3.4104354338894955
3136 -2.898093785271028 1.7112849395095628 -0.10323443377997349
3137 -2.776287005561677 0.389307347301328 -3.119266620338763
3138 0.9310221673275519 2.032200833189173 2.301405753260754
3139 2.017915599075171 -1.2097019251117729 2.3480671546006247
3140 -2.704222065072966 0.46147927189989574 -1.249012761363541
3141 0.44791115391462577 0.3717458623228317 -0.6848522917775379
3142 0.9277947386875347 3.1544434687255163 -2.007013652244845
3143 1.7438738954454254 2.1605645461099874 0.45053306949744476
3144 2.967328142823744 3.343109351870474 -0.7821645153813951
3145 -1.3124916163546867 -0.7059896787022515 -2.7024830511887625
3146 2.0595416508571835 -0.5918014521846379 -0.5760991397050335
3147 1.6760406072159926 -2.917977065715033 -1.5500647284168227
3148 -0.2975289542536627 -1.7650550181700326 -2.361737546236674
3149 -1.3740607089273456 2.60794248332868 -3.2742388318241313
3150 -1.5020542169309752 -3.16055973686029 -2.3420837528121154
3151 -3.2465693522013463 -0.2015838451270392 -3.0166182367484486
3152 2.88699125876654 2.6584713423538946 1.6383490333015682
3153 0.35782564134961997 1.9388158871051986 -3.1401720604941388
3154 2.5292176263737276 -3.2714852525727895 1.9229815224890898
3155 1.9692802012042034 -1.981706064972675 -3.325328077206872
3156 -1.9916466459288817 -3.022894867903697 -0.12392536107863167
3157 2.4272260363357576 -1.1094295832867993 -1.0265753363584784
3158 1.7732975034349048 -1.6075780694515691 0.6442306734353815
3159 -1.20884950871525 -2.810613914285455 -3.401446244939279
3160 -0.9793641199573334 -0.682076820696866 -2.1999380198838816
3161 -1.8462793980227572 -2.844238468609017 -1.0315639309244449
3162 0.9784423156884372 3.141619877711305 -2.9912691484090224
3163 -0.15455837986488408 -0.3430635836825629 -0.14424524233431996
3164 0.02550097534342836 1.5666644662785154 -1.572257816131139
3165 0.42128740229130296 2.7521431091077284 -1.9408871016908764
3166 -1.1006111836316224 3.126343699262646 3.2487696594272792
3167 -0.17790707128076835 1.7156347812210482 -3.123193997762475
3168 -2.790069931148964 -2.877075371477991 0.7349674332788806
3169 1.2488890025967554 1.63624763130124 -1.687059307136066
3170 1.8291761996030127 3.2505645003058135 0.9750217834420293
3171 1.0716441219406503 -1.4155379344879635 3.214494338008143
3172 -1.8247628590372604 -1.092400363349367 1.434640736999295
3173 2.381204090399876 0.5186261085986903 -2.760050186518138
3174 3.427324465369533 -2.84629903664185 -1.0600084910595278
3175 0.43932879948185255 1.4629088549987135 -1.3752892641562664
3176 2.7750020927701473 2.888175243344385 0.5187167462362086
3177 0.0934404839018336 1.509746673609477 -3.1323818564109547
3178 1.9657926552209615 1.6894488565162096 -0.3049442055498194
3179 -1.767229107700234 -3.021267937273946 -0.46292016100245964
3180 0.681405438397873 0.6707486761614008 0.2239921043914067
3181 1.8807880515824629 -1.317802946884846 -1.2812337184553435
3182 -1.2747657520414242 -3.3521997312078082 1.8128159171938059
3183 -1.7559535619634503 -0.37219152467927524 1.6724680471237432
3184 -0.622380353016865 -1.1066844097647572 -3.3333752661648415
3185 1.173338008236826 -1.66039591855747 -1.2151866365631507
3186 1.4658238439500548 0.4488687016303786 1.3469713985344813
3187 3.032685375887067 1.4101141545767635 -2.8456466429975396
3188 -2.60649356155061 2.777477743619016 1.6953422436932593
3189 3.185495346246193 2.1059262977757545 2.5991882966161657
3190 3.179787405440218 3.062427801296747 1.7234659449571894
3191 -1.668066185003573 2.640900176372115 -3.010649733866075
3192 -0.6109479002601476 -2.741176186678574 0.9600900895086887
3193 -0.7399747683513099 1.8054564961146835 -2.203207011739395
3194 -1.4225897253341329 -3.296812861589017 -1.5951703274303621
3195 2.890160514373841 0.558514545976723 3.2572873664146886
3196 -2.3555996781867217 -2.0787534177446774 -1.11393036126428
3197 0.7867423016987228 -0.6329350522127258 0.16193254202787902
3198 -3.048605561506398 -1.8830054069601108 1.4882619643560637
3199 -3.0191137578742797 2.4157206168550296 -1.9781595121932032
3200 2.2460925957274966 -0.30919752957768326 1.5447592682549767
3201 -1.6054400035726821 3.2520515075665313 -1.715665079823835
3202 -1.4194366895968469 1.2513274602169633 -0.1816919624590219
3203 0.4425829314485039 0.7894690302056596 2.3940941472912147
3204 2.673247522954718 2.1131253193404995 -0.9795367883966722
3205 3.3898631141679645 -2.67512158944029 -3.0937143662839524
3206 1.304078707175299 1.8352130287796744 -0.3758846059823191
3207 3.2193347453650003 3.3469404574529413 1.320886747307736
3208 0.6323340408816772 -0.5083970275086936 3.219762734194318
3209 -3.2479863139872394 -3.254347160020864 -0.7066848459098406
3210 0.785394534593757 -2.5227433647569066 -2.7335473217504003
3211 -0.9848181632391033 -2.3790241014067828 -2.5697494610047267
3212 -2.4745530788592984 -1.2449656692316944 -2.0698000181857963
3213 -1.5594984963325262 0.27206265659915785 -1.2500082933496939
3214 -2.4425859902873626 3.1316474968539714 2.4205376208440668
3215 -2.7370832542404577 1.819830816918884 -2.8386538293809025
3216 -2.7302511568800663 -1.005084897137077 1.7563329768873153
3217 -2.92821841842739 0.6180020488173409 -0.43840105433670784
3218 -2.468237242591133 1.0947273867403438 -2.291426939541102
3219 -3.1041589514716197 -1.273726624792674 -1.0058669838984502
3220 -3.1373508513168673 1.4470750327137645 2.413134060691966
3221 -2.5960382069122745 -1.4376931618738582 -2.3510752392055703
3222 -2.1109827491653594 -1.700484637330668 3.2427553490280365
3223 2.550145151720683 2.4222095767904395 3.27122301917462
3224 -3.4430358423185026 -1.0378493665074466 -2.1804503214088053
3225 0.41035861629897147 -0.9896467520229599 -1.7615320845893183
3226 2.8127152531836277 0.028450747204983563 1.421678853304354
3227 -0.927336490801233 1.7375227400831967 -2.0496064991600536
3228 -1.2815434340421463 0.38727493281199915 -2.6745345747951865
3229 1.1816801970878026 0.132682629041143 2.3086850684995395
3230 -0.21131370634932023 0.8273815406528049 2.8848456669565867
3231 1.254306081461859 2.711933961102935 0.49300078847839934
3232 -3.0309841922392815 -3.3109444966567705 3.119095662673535
3233 0.4131386530345695 -2.710500651583016 -2.5290270748042047
3234 -3.2031510869615487 2.855230318654816 0.4697253716869038
3235 0.2592407847654831 -0.9284995468740306 1.6752827698241701
3236 -1.7602672417116048 3.255542157013876 1.5860443933870587
3237 0.2032107375194053 -1.4096952105260843 -2.3974111377575995
3238 1.1611757966829743 1.5504487019878463 2.717570692121023
3239 -0.3301797233987143 3.129825843993723 -0.5131641071986743
3240 0.5573474902638065 -1.2391390781268188 -1.0321459480722648
3241 -1.8828154141800924 -0.9623638800548912 0.015201829224846334
3242 1.5398014110146259 -1.936966880976233 1.1700542088823382
3243 -1.4323019598439037 -0.433430902389762 -3.3134910493931486
3244 3.173554560249472 2.1175657834928443 -2.4764049888622437
3245 2.2867792002437772 -1.639178304718642 2.433321002178527
3246 -2.4286318456509854 2.3550043001425367 1.8269675845905908
3247 0.7871682755113223 -0.39429765739006173 -3.067967325544561
3248 -1.9697894187735632 -2.4658151659761494 -0.9985277618121143
3249 2.5609787035825082 -2.3573050670283653 2.585428713075079
3250 0.3057144571428742 -1.885093409873422 0.9987193680325166
3251 -2.043911130949611 -2.502626471967875 3.177255053681833
3252 2.0786925606344657 2.9251333918509665 -1.1890839220796128
3253 -2.7509401376654146 -2.6895612795755848 3.363774577186628
3254 1.8331975929750592 1.6310781689099416 1.3989444383048877
3255 -2.385903342227046 0.7396960983353249 3.2656695006836753
3256 0.10884150990948549 -2.631979210235152 2.2469876865198493
3257 0.9464583917099924 -1.5179459655796403 -1.6225747823581138
3258 -0.9300182028330407 -1.8097845372767118 0.22602244345925873
3259 1.4011743972869333 0.436220980027354 3.3185530961770566
3260 3.0732583543002248 -1.829580535744846 -0.29150908064042624
3261 2.5743720912503805 1.2828183136822864 3.1115422403327844
3262 -1.9645501042696893 2.5428900181746608 -3.1397138564172784
3263 3.3095490726378154 -2.9758452467304117 1.6787477149831682
3264 1.1094302572670327 -3.048773069479522 0.9455225869265774
3265 -3.351334092056134 -3.12363030587044 2.3881647487010675
3266 -0.09229195212160066 1.1424119934269519 3.262743185406449
3267 -0.6288080396781625 1.5944574504192812 1.8572269106671413
3268 -2.7764693977260744 -2.676157759725847 0.25348506497431716
3269 -0.7217455261809314 -3.247371655548248 -1.1213572247901307
3270 0.5361275464098741 1.9938971928067604 2.157637885086554
3271 1.037216460073369 1.297924839316076 0.9408530465174358
3272 1.2161539339563985 -1.806397597671803 1.7846805948586897
3273 2.902292625870879 -3.1582217294493944 2.3492844344143244
3274 -3.007513656824677 -3.3218107750792982 0.42787052724605973
3275 2.7167265683948933 -0.7292321626799797 1.1412437268038935
3276 -1.2007611045938327 1.6378091571501505 -3.1253122586451036
3277 3.1325462557362544 -1.959265289885062 0.11873724924320801
3278 -2.357921671980667 0.4197237286422027 2.8774280074738052
3279 1.1583836780294954 3.0682418077418943 2.549609639020451
3280 0.39582601882557084 -3.0143559136277887 -1.9445147901870343
3281 0.21516852328054756 -1.1356196556118865 1.721965402339018
3282 0.7951319255321668 1.957383245727483 -2.5102770049698115
3283 0.49757131047573533 -2.3952441132215285 1.648690910081172
3284 1.156136837696462 -0.09088130186966577 2.81222738171893
3285 -1.1972265651385916 -1.2435264804552395 1.3565323270841403
3286 -2.37369585490251 -1.7101986443277244 -0.8443573591206909
3287 -1.5612408384435024 -1.3286633084225434 3.047690702991579
3288 -2.4081447995080354 0.6455651478025666 -0.8725961367046139
3289 1.3582329826902413 -1.526868898610295 0.6651881892672091
3290 -1.9318090736266442 -0.8349658472116359 2.6962575025450484
3291 1.3356756971792867 -0.008420436629955614 -2.329609715626859
3292 -1.2165605857432984 -0.9173005274701286 3.038181105673712
3293 -3.059744029521918 -2.2282165582748164 -0.9252093569874428
3294 2.9380123020612325 2.0017912775356996 3.3401349271487484
3295 -0.9982456019990852 0.32926028633815096 -1.9073670918901258
3296 1.6931311809951413 0.574413025375148 0.5555561477627642
3297 3.310563795827216 0.23719845044964671 1.0471592025472025
3298 2.3619641534202906 2.426115549013148 -0.28814656913301795
3299 -3.198237265577403 2.3933726395335806 3.058131690814787
3300 0.055925706710771274 0.7829935153919875 -2.6293162230313505
3301 -0.1109737973090177 -1.4116587622730135 -0.7953029807051415
3302 -0.6681351593371674 -1.9095176723558707 -1.1782962357433309
3303 -1.3806121957687854 3.228374715863257 1.7493562284508948
3304 -2.534453339202773 2.43421187454138 -2.6272928868996286
3305 -0.7082857991480133 1.5077174334837413 -2.63429828195329
3306 -0.795984415880082 1.6671188812201747 -1.886797434948848
3307 1.372131716151365 -3.2348077178078634 2.419610171705907
3308 2.4373925013281657 -3.259264294344882 -0.3005077472187407
3309 -3.3314231461761734 -0.6741776312045437 -0.9316452196491833
3310 -1.4189643507395586 2.269222161117795 -0.40691250832755993
3311 0.7862155442590607 -2.565442867066149 -0.6308173852245236
3312 2.4801831417109317 3.0904678443834985 2.384565903407103
3313 1.7082554540607158 -1.2979950824200102 -0.5642703877955821
3314 -0.21855578324158587 -3.2382287375092194 0.2881678393252693
3315 0.8524672130791714 -3.307065247096921 -0.8894017203098634
3316 2.65567274432158 -2.596591279210589 1.8313596920670787
3317 -1.5224305760769927 0.4091957729246478 -1.0483118990247986
3318 3.2442258681076726 -0.4709324922754191 3.1020993078730825
3319 -1.4957130630989628 -0.3953543853054281 -0.0662799784923549
3320 2.37454486855851 -0.6716438026210342 0.1301849421678781
3321 3.1844325274199714 -1.91546076743868 2.7466718105510473
3322 -2.597699891183641 -1.6828028165789977 2.830824360215109
3323 -0.06951028905650775 3.395077083847136 0.6307431505791207
3324 0.48960147286291145 2.069784598808097 -2.7330570549898945
3325 0.33439080705165297 2.5497108328478024 0.7664467784676636
3326 -2.572000871958874 1.1569359347169896 -1.7787366002965963
3327 -2.594696823984241 0.3448162889659475 -3.444400920963572
3328 -3.165338812281759 1.6613192963761239 -2.470557279377035
3329 -3.2413345849330364 -2.1900085226338875 -2.3882703789303554
3330 2.5344109883390455 0.9648956160592475 2.568616861310246
3331 1.4978052606646661 -1.8544095118605792 -2.349842245486407
3332 -2.150170731795144 -2.8659837100176286 0.29350081205731676
3333 0.5145817646068684 -0.24942494632744944 2.6404172919099675
3334 -2.8756405189821077 -1.5554145872017842 -1.573591293765878
3335 -1.2283577841563607 1.5076154767923664 2.572820079650759
3336 2.9342511742768025 1.0748568664613125 2.8592579341517257
3337 0.2849581895174584 2.220244760213709 -0.006257152264428755
3338 0.7553321447454584 -2.569902976823027 0.5358671398498958
3339 -2.3294819394564095 0.877699589708376 -2.666354101238745
3340 0.25680978944887883 -0.26201099181834214 -1.2721150673786075
3341 -0.27309552317789043 0.5660571335861017 -1.4678276799807275
3342 -2.280350596420213 3.0643496480291965 -0.5795783904477788
3343 -1.4340908378028885 -2.81628486489313 -1.8232504786001038
3344 -3.303366328914291 0.2688458886644883 0.05140881695599441
3345 1.0486505370729806 -0.30926828727012645 0.35553473136387703
3346 -1.9077119542884509 2.764459404592674 -2.5620430923474498
3347 2.4737044203066247 -1.9868356947406087 0.4301425691255915
3348 -0.6212924035436379 3.3370734396852755 1.5828264910605252
3349 1.4855621237867596 -0.003676812697682023 1.2687285051749086
3350 2.938226653782742 -1.31630381258839 3.1526029814653196
3351 2.993583229982469 1.6872729221200102 -2.2723512347879975
3352 -0.851194948795584 1.1180916244810746 2.831866250800543
3353 -3.320568640291927 1.8191864533364672 0.1729363880227019
3354 1.9547177614903215 2.412730711179402 3.1361315858356105
3355 2.987015822982501 2.040135050252964 -2.762297526370316
3356 0.25980593750245634 1.6493180298905128 -3.4754133704423866
3357 1.5819627861839454 0.7574092888892471 3.380970778317185
3358 0.18016210564205276 -1.2286006550661657 3.069518593870968
3359 -2.3441198871286604 -2.917630363979256 -2.643753128750255
3360 -0.5273916411006105 -3.3141366205727616 -2.0859996786237986
3361 3.000987463679738 1.557548148439588 -2.5347133171430984
3362 -1.8819634472186686 -0.4847641064770913 -0.9825929528697416
3363 0.4698381300559871 2.10109677266421 -2.442891044190714
3364 -1.9421195354861374 -1.1052864812696077 -0.6005044688005677
3365 -0.18276156268140706 3.174651493142664 -1.485266476612015
3366 2.2160867836733567 0.594545844768118 -0.18666751796397463
3367 -0.1331247578346101 0.015189255150092755 -0.001674960028723859
3368 1.6404878413192727 1.6479757059328666 1.6469657675422749
3369 -0.15551591939174528 -2.59502146456659 0.53241651961087
3370 1.9622839650757526 -1.9154706256906924 2.5809841689792727
3371 1.7340110478569364 2.4925924912991526 2.756402192107919
3372 1.7646200437797916 -2.1148485486372843 1.2571983980368642
3373 2.9314412437374555 2.2932856064202656 2.6265532250774477
3374 -0.5850596728516939 3.2785845078408293 1.2993842238626132
3375 -0.8839448773248032 -2.574303756596398 2.699710697724695
3376 -2.9128131803454065 -3.4529315017372215 -2.534159827372466
3377 0.49983465427675106 1.0412527827545475 -1.3475145688615842
3378 -1.023598290099053 3.31030874954111 1.5944700180486264
3379 3.398594953733001 -1.2538879641669265 0.22868742321108962
3380 -2.253442228456673 -1.453205242266716 -0.07584040752287001
3381 0.8686170440655187 -1.7843303275504308 -1.048752046290275
3382 2.7673752507833207 -0.7234775055545639 0.9699034041343033
3383 -1.9045032205552408 1.3280114703450334 1.39543418192546
3384 0.9035579505739363 -2.792394891309954 -1.7053239313753703
3385 -0.6333665547064351 1.1072445791569492 0.46389180020482634
3386 -0.8957324849702983 0.011804278172014272 -1.527347242282287
3387 0.8765144642932591 -0.5457735571368836 -2.104168108366759
3388 2.155185609427788 1.2927723831346072 -2.6080243129709166
3389 -2.1344740355720213 -2.03838028243892 -0.7916836841306047
3390 -2.1249578929420148 -1.2767739912833982 3.1426801948022387
3391 2.3182151484983993 0.7312640218200372 -0.038151020997946594
3392 -2.3906751970477242 -3.333118663874988 -2.7647956763961177
3393 -0.20237470491574513 -1.190319783088613 2.8306178815598524
3394 3.3809074255722704 -0.937881399421869 3.170689889683956
3395 2.4692528249341263 -0.6770499114011919 -0.7611271699449259
3396 -0.693755016057053 -3.4187722041131003 -2.8373159624231032
3397 -1.006834617761348 1.3084663142775639 -1.8268935877356474
3398 -2.246761308148227 0.10175080517489629 1.490356863856268
3399 -2.4136602256358595 -2.0830436265384655 2.9082796504606563
3400 0.6291118426905046 0.7017537617612184 2.27363026518085
3401 -1.1175128328250503 2.8092091203862974 2.1103471089612955
3402 2.1021565797412665 2.804747528185508 3.2521161992128915
3403 0.7017513172079862 -3.4112898391762796 -1.6538889929632536
3404 -1.2544158545192292 -0.44599127904205443 0.12609723521241878
3405 -3.2313180111336153 0.06163995931496513 -1.3442955708156383
3406 -2.287533920193016 -0.013796951317851181 -2.7235339190918686
3407 1.213532953784406 2.587719966410944 2.881143008693654
3408 1.3100689181928649 -1.2978775020588886 1.4119027415755125
3409 0.8624610474780695 -1.4375978697346774 -0.7495002559967477
3410 0.9400624519073323 1.7167653477340312 2.036828438854979
3411 -1.6407356073458874 -1.7012808579556062 -3.2186202207722063
3412 -1.0151621948716827 -0.23903270835000445 -2.635555333158976
3413 -1.1611306092337204 3.31991521490049 -3.0465740517703166
3414 -2.2896697190316604 -1.3066456647224647 -0.6198132008457644
3415 0.5684892099878199 -0.8392764621681379 -0.5452033360031358
3416 1.8889779096534063 -2.0849478192975504 -1.4126701573258829
3417 -2.6222667905520227 0.663587911317688 -2.4750065737387668
3418 -1.892875713629498 2.971795112238548 1.0148451221961161
3419 -0.9258353713190173 -0.7159800164671404 2.4075219727756947
3420 -0.02853718614078336 -0.040429565377602304 -0.4920876413564587
3421 1.8335807499402463 1.150092809262978 0.8608299442730573
3422 -1.115457620926524 2.7476331312267455 -1.6123361384607307
3423 -1.8667420579633613 -0.7249404134336053 -2.855075898300804
3424 -1.907784552144967 1.5443072301280272 3.3084202472116973
3425 -1.1326268415778886 -2.0665749412029513 2.8692951429258553
3426 2.883418691402261 -2.0200325607729606 3.067477519975573
3427 -2.044926479343619 1.1945264905735697 0.22162858927711845
3428 -3.2392881065627717 -2.398368921293115 -2.4250270343050087
3429 0.7080022514371584 -2.1624053525451896 -2.1489904252396017
3430 3.183293543203735 -0.29625506912068816 -2.3938509842497293
3431 -1.2896644583750274 2.3113084408348774 1.02533439579569
3432 2.349774178270137 -1.750367067020102 2.274000856822534
3433 -1.8096835845898125 3.199604227543385 2.6530721840297384
3434 2.193997131871623 3.0518095840811976 3.2014055152192116
3435 -0.3460643193876368 -0.8558089473778231 -1.5785033136584006
3436 -0.7362224353265204 2.5845773819032347 -1.4913434976114237
3437 -3.030542523857443 -2.808528476644652 -2.955018183656965
3438 0.0934125366113951 1.0400365632105144 -1.02640302481268
3439 -2.251366819871203 -1.1753355139596753 -1.3948363892959743
3440 -0.4804198740143192 -2.8199571846191405 -1.2575878518211474
3441 1.6611597772223416 3.0459787518976538 2.0924716359169078
3442 -0.7406265151489472 -2.227747458235205 0.0382505352243952
3443 1.3599526272958493 -0.30761990632151476 0.37705544052855133
3444 -0.08578564759242446 -0.2373993613162791 -2.8667096314909757
3445 3.2644914532437457 1.0182376863366391 -0.6027895465184095
3446 2.936164074782516 -1.3785467017005193 2.062741178151241
3447 -2.1297080879680617 1.9351518884013177 -2.4346580147749006
3448 -1.983683614667235 -0.6816134506252433 -1.3327816996611306
3449 -2.553626685446388 -1.4598126591387783 -0.3954241996624153
3450 0.09049402027822478 0.433463866386415 -1.496029025855882
3451 1.268237953989816 1.5609634381729551 -0.49957455675154727
3452 0.5736742283720778 3.2568738396024 3.205520238103608
3453 -0.39696153672055406 1.8820140569997952 -2.7513132937529847
3454 -1.9872172485426083 2.214942267817567 0.843911301760617
3455 -1.7181989124566692 -2.5346088297121 -1.4559870910789123
3456 2.9447018173216617 -3.2195017905771435 -3.3204408560228273
3457 -2.9005738881535574 1.5524226340648608 1.289924742817072
3458 -0.6932399183610267 -1.6822297005400562 -1.3782233203688752
3459 1.907250642216366 0.5138715306949919 0.3782126684730137
3460 -1.3983690056234552 2.379963850562548 -0.840841392109499
3461 2.165980930350214 2.7914148143687756 0.6317382346093963
3462 3.3725698226293077 -2.6538845910359656 0.8805896647605107
3463 -1.2076501181323178 -3.4145698075621476 -1.4146818659410114
3464 -1.8295311173201005 1.8159363594181226 0.9142436907135768
3465 -3.0822027550716786 0.9467291715020472 1.7561800241253809
3466 1.4218089852715412 1.2065175604232323 1.055109819952442
3467 -2.426098587486112 3.4072474359516858 -2.443283234395649
3468 -1.61295583629216 1.506131514987076 -1.6060125612571836
3469 0.6030528989748097 -1.2665314350231698 2.2717114220086736
3470 1.2360123400905079 -0.23998043152000764 2.1981747692131677
3471 -2.8091149041952397 2.3071728960589315 0.726278081845433
3472 0.5417534049410025 -0.3421611040562019 1.1823208908368066
3473 -2.8873125572338743 2.9730682479606756 1.650323783377386
3474 0.9170204330189075 2.009004408099239 -0.0014602151373072456
3475 -1.6709992421778936 1.789939562329367 -0.009543147107068295
3476 0.8932526128140498 -2.9765947832629505 2.9226961596849588
3477 0.7027258017132979 -0.8745377054696347 1.9996652200148561
3478 -3.3795520348576904 0.14601370250145995 -2.0192109107063905
3479 -2.55501933515213 2.816741630599781 -2.784138730240573
3480 -0.027970412383620174 2.564632497725811 2.4095073357843506
3481 -1.2640634673652695 -3.4172174910607747 2.530632887398448
3482 -0.19403270942701822 0.599508925185284 0.17937137088620791
3483 -0.6237968281744307 2.7694355111800375 -1.9770733609888953
3484 -0.26107753408041506 1.851970162250647 -2.4876257744100134
3485 0.5580572844086972 -3.151037832035252 -1.4836322497800551
3486 1.9997192542688143 -2.5246722498752328 -0.5487971377650964
3487 -3.1464125153160176 1.403186616832801 -1.6247974556326843
3488 3.2377389126942475 1.2340794508943993 0.6006032418050603
3489 -0.8604187244818796 -1.6504079172530937 0.5562439211701575
3490 1.0285625068223676 1.1857264940383436 -2.345119233969913
3491 1.1017346169918902 -0.8960141765743631 0.9212479868251205
3492 -3.012974058501746 1.7950808679544572 3.351926811322658
3493 3.408226449835558 1.4464641401367098 -0.9334330083341633
3494 3.137193588491059 0.020707111196849984 2.7677734618262395
3495 -0.8981750594629344 0.48368162166595563 -1.812161814254607
3496 3.1254990138691316 -2.7502833004744325 0.1523269403532134
3497 1.6069544572962762 -1.3705472119867588 -1.9039246734331763
3498 -2.7364820748937277 -1.9175568496713091 2.1213400944431133
3499 0.0022427871283490323 -1.7742543464226035 2.2013554041888437
3500 2.202885817225215 0.18844590405991385 -1.693760092192928
3501 -0.05964667446443053 3.075940167979344 0.44256515261629764
3502 0.5439341186074647 1.7055711204912083 0.7544719542696502
3503 -3.1324414353693024 0.9111751809777482 -0.6191539934880067
3504 -2.1936216752550814 0.44868375386158577 -1.7614457515676905
3505 -2.656990125857479 -1.5923327902903552 0.8055720150475372
3506 -2.461074660142277 -3.0964299190152373 2.778571370580103
3507 0.6439610547336845 1.1270995241067954 1.9721368424442043
3508 -2.361794137748269 -2.378468165603695 -0.14684089205164913
3509 -2.0753569825741036 1.8811897376173228 -2.7642402078851327
3510 2.2126800856692683 -1.29619172162855 2.061996540129019
3511 -0.8034303803734636 1.0954741646381245 3.3389647149292423
3512 0.0961110453772619 -2.0510579236273263 0.6770395420009049
3513 -3.4465534110136593 2.1287138358305238 -1.9701101350191115
3514 -0.8821147100801753 0.502499229711341 3.023675295317254
3515 2.286462356862003 -0.04366054866030349 0.5704121145938537
3516 -3.0712671949552117 -2.1183327365627966 -1.9359122777397668
3517 -0.537198719793684 -2.044800850146737 2.02910642719173
3518 0.06879936565674558 2.608740740702645 3.221368378863121
3519 2.9759702139645237 3.2556050706444037 2.643433781672176
3520 -0.6224284003131226 -1.9142153179679546 2.9168276444217214
3521 -1.0395475979874222 -1.7629389358354135 -1.4002641159756084
3522 -1.7350640226303793 -2.237632104194603 0.003913260540568968
3523 -1.3281516800996715 -0.9179110462135016 -0.30210294065796606
3524 -2.459021385088948 -3.1905584654106955 -1.3192879312042156
3525 2.7735966167018646 0.028452384338694684 1.4491941595869495
3526 -2.16478352626146 0.6821407419896386 -2.089282779478106
3527 3.1875471936415805 1.9878031043661424 -3.3758439068391843
3528 0.23545496898062082 0.7041540221482901 1.0905797494615423
3529 -1.4635780523042892 -0.11717689519692386 -3.1334278366079618
3530 -1.7725875687994495 -3.1117654757879656 1.0999342122467617
3531 -3.4193249125101066 2.99159293153453 1.5629792999368777
3532 0.1076356384684962 -2.1369470983251926 -3.3557891091138243
3533 -1.8180788642690502 0.5142281293552311 -0.5491381224237011
3534 -1.9566371989484803 -2.8789997190288656 2.9959805134175217
3535 0.5074626951095229 -2.247649938071348 -2.268913341007683
3536 1.5638500286552757 0.8472903402117977 -1.6224793484199507
3537 0.6739399958805737 -0.22826318839704846 -1.5705497958194214
3538 1.4451668871759025 -0.6973801246464036 -3.3365019788545838
3539 -2.932390853497807 -0.30106944429999666 -0.2606009404270208
3540 2.994649142604679 -1.1600470570081831 -0.507805926474721
3541 0.6431327617569884 1.0473884118517325 -2.0365634355474294
3542 3.3913880236522576 2.1919186924650242 1.4461308697149922
3543 1.7161393840488606 -0.2861687688941545 1.029689558191737
3544 -0.5807606402939276 -0.5953245026995637 2.498331117777236
3545 -3.274925797159403 0.7402544189394881 -1.192045052229834
3546 2.8469812158698953 1.5180143116452183 -2.592278860456622
3547 -0.4874236222661569 -2.879978003102378 0.3953690369802059
3548 3.199833079690113 0.8555557159092223 -1.1203994725647952
3549 2.7916602505510886 -0.8870503474279723 -0.6791739676227545
3550 -0.5264738214024682 -1.72974990097416 2.751486914061495
3551 2.201995599988166 -0.9320262519354693 -2.232413409468779
3552 -0.9244987418796139 0.9866375509733954 1.1879798658758391
3553 2.2539227677876204 -0.2008807123116391 1.8802305181447352
3554 3.206415433591956 0.7539061675768202 -0.13035333133789462
3555 -1.7971030080278718 0.09951582439315577 -1.4694427671727066
3556 -1.7423031378575258 0.6672387968383586 -3.4009138896624993
3557 1.0472265433466195 3.440487047931959 2.5585174350096858
3558 -2.1463452079362746 -0.8567444758353009 -3.4605211514122485
3559 2.7301269783351207 3.0289145495066108 -0.9566945352707477
3560 -0.25983911655015735 1.9039401726791465 -1.0364241684065933
3561 2.34088463567724 1.0985889919949408 0.3242323126332432
3562 -2.0339235711557047 -0.7386163806926683 2.596894478924654
3563 -0.76888416811111 0.3744878808175054 -3.0446787665655184
3564 1.8815708238629592 -2.00315817565669 2.9263847540669565
3565 0.41059131809794386 2.9213723833065908 -2.114014265570425
3566 2.7677288523286956 -1.701200805984378 -1.8731867403397549
3567 1.743828384417338 1.3956606970493157 3.380453740553257
3568 -1.5889871191556433 2.9475009632136824 1.0246464000217093
3569 -2.2926663214865237 -3.2256118088444024 -2.200950770778339
3570 1.894529739447373 1.2554973719100262 0.6949691274707713
3571 0.30569721889834484 -2.174816585671859 -3.123451379029872
3572 -0.19517241875169014 2.20652772603559 -2.1652029571580025
3573 0.606744058629315 -1.5155513835972911 -2.9010622462465827
3574 0.3185665594207509 -0.42164910527986 0.9234477176688062
3575 -0.6456201363685107 2.7824317907964327 1.9095594720904558
3576 -2.1525776954068596 -1.7955942908884783 3.4175413902036316
3577 -1.1202620637316243 -1.8728878851757162 -1.4841612437764007
3578 0.029621631226175057 1.6154831522256354 2.2802690196281223
3579 -0.2712384141265208 -2.825033407733806 3.395488415997894
3580 1.9534420314913485 1.7336500390581915 2.0689521089537286
3581 -1.5531611936319802 2.9725420416034245 -0.27292198940059625
3582 -3.3847912236761015 2.060125387449801 1.0214850110352514
3583 -0.06049522858215346 2.655700058482783 -3.4143921472443126
3584 2.9013989925674264 2.5845967600233233 -1.1656554332861284
3585 3.452220496290635 0.33902424202691644 3.0192332778215065
3586 -3.163480958785729 -1.7172593635436266 -1.8618891706427712
3587 -2.1576429774409167 3.041368718720747 0.7393932405727246
3588 -0.4943170186822938 -1.0853155189701553 2.8576441682684504
3589 0.8452128834657061 -0.657902536930368 2.69638977843712
3590 -3.361867858309282 -0.2263234105386762 3.348478775692365
3591 0.8227273998033405 2.0673195942945375 -2.6381610731630163
3592 -3.4315760159126865 -2.2122722230189593 -2.8562411797829523
3593 -0.73055700198836 0.9136528668321611 -0.5009146796022559
3594 -1.1876571028683278 0.4142230044907378 0.3959153497886843
3595 -1.459696495288264 2.8338116112993745 0.362143472767347
3596 -1.5658667627746004 -2.9488243322696412 -0.9472381963617582
3597 -0.5033539645405697 -0.7137661411749154 -1.9081028320261737
3598 3.168955661515424 0.9516239692635612 0.9745923194408295
3599 0.7743471273068607 -1.3374968500853264 -0.08285007910494542
3600 0.7090428142684799 1.4849252063944263 1.8561915460576237
3601 0.5842710307185116 1.4190145641280738 1.4087427415745457
3602 3.11797681953165 2.3175814667010375 2.645513025275591
3603 -0.28010352539921324 0.43453984995911166 2.7466179333829714
3604 3.417491018511057 -2.0201330221296065 1.3790234988193404
3605 1.9173859275460672 -2.159999771473557 -3.242616195540472
3606 -2.9146506599057638 0.268071895030112 0.884306751069948
3607 -1.02092077725076 -0.1336641239721501 -3.4061029203134314
3608 -3.1163579244117763 1.3192693761353733 -0.1981492555353457
3609 0.6730371391978267 -1.5611665082513717 -1.3562657446515551
3610 -2.769815847844023 -1.5812164686977934 0.7785682357047624
3611 0.45290117936123825 1.190649861072198 -2.646543178427666
3612 1.025174745427899 -0.3867434744911309 -0.6774958668964187
3613 -0.005452808028934867 0.3792628423249893 1.0803500807952333
3614 -0.37600748851839794 1.1007740401984927 2.444815102043039
3615 -3.0270206818565755 1.0174342436316879 -0.26484214155871233
3616 0.9198264576408174 0.7249289137810216 -2.7017447296666854
3617 0.6271025253218606 1.5346791146421295 0.6648861671018471
3618 -0.08719113332881896 -3.097284712288206 2.253469778872704
3619 -0.8402870104764354 -2.4112098311194585 3.22034466755183
3620 -0.3881368478260869 -2.056938111525016 -1.2614158249351757
3621 -0.38924408840639 0.09578287593386359 -1.922767260658472
3622 -1.071439787692074 2.0399776340457736 1.512712752916419
3623 -0.396274362736133 -0.4100617339116726 1.892673043728756
3624 -2.213895755439309 -1.1832626990829984 -3.1336517597608142
3625 1.384640474751195 -0.6212361366083006 3.0058818465390376
3626 0.822261103516345 1.1509823722910826 1.970306810553151
3627 1.484382237009378 0.9280795404653707 -0.2564675000768878
3628 3.258336371904277 1.3803527169560477 2.165297833913171
3629 -1.7154086081856306 2.837808212408351 -1.67402642404587
3630 -0.5897008566869693 1.4019569972848887 -1.5288997767866035
3631 2.4658849444015942 -1.9153822333611088 -2.8541104212536075
3632 0.47757923301865474 0.7124292689885436 1.758563922843453
3633 -0.03623210130749071 2.124516224995242 -3.3123107082144814
3634 2.2494353294995015 0.5064931882029093 0.9430909277329173
3635 -2.6960033186819703 0.17986039459977213 -0.6556236444986633
3636 0.803651933530344 -0.1816362732143488 0.04840817000741604
3637 -0.9382914129242679 -2.443537069771613 -0.2886064232344065
3638 2.9144037994590177 -0.3061569662154315 -2.7181280906869727
3639 2.1001327988763716 3.394584899577657 -0.7206933930150701
3640 0.6476954372963262 1.6045269925842047 -1.9215897619048703
3641 -2.0433316565153703 0.31589587078063824 1.8601482597572645
3642 -2.122286554794884 2.096179406305493 -2.0406137526892736
3643 -2.3959519174787336 -2.0498007918540364 1.0435398350731748
3644 -3.1031091942653424 2.5281337940371906 -2.002211887506898
3645 -0.6013198363375162 -0.09850873038864802 -0.8092832131316586
3646 -0.3299494515186754 0.07930085827125703 -2.107859174562843
3647 2.4057763136755224 -1.7382857098908124 -2.295764077352806
3648 0.12931505614472735 2.352393162109036 -0.5342025032366986
3649 -0.0790465703647841 2.295000027022436 -3.1627020819279363
3650 -2.414811040399052 -0.6626739309043517 -1.36867953338262
3651 3.1334756288287946 -0.18070067063467543 1.9316717795024054
3652 2.691635879697377 -0.2654642160023261 2.9758863342473787
3653 1.8991125858920213 2.1516483581991306 2.851661269566614
3654 -2.819502968770803 0.732583413014912 1.3747433706441516
3655 -0.8116835774718839 0.7980800022513362 1.7839073746733112
3656 -3.172514556254387 -1.2894336014420533 -2.006253535574563
3657 0.6777458257943483 1.4499799105629483 2.7904847571460927
3658 0.17181933670432767 -3.0314287206389268 1.7824056622135307
3659 -0.7289779736331795 -0.23043546180132723 -3.476426533842975
3660 -1.6048655404434031 -0.9343556257219312 0.14202820269143793
3661 1.5336824142935892 -0.9683776683760603 2.7520286184030303
3662 -2.534988478895944 0.3608235249615159 2.602444462109139
3663 2.540525057545428 -0.08651033533243954 0.14731276396165838
3664 0.3821455268898734 2.3615682233993134 1.4155541846240027
3665 -0.05407589839273182 -0.18588902451773484 -2.2205382506194855
3666 -2.039133694405336 1.6640003187492423 1.0651589043913854
3667 0.37195621292500197 -2.793324219284637 -3.483130254783323
3668 3.3776726652802993 0.06113816171898976 -2.8573032928369626
3669 2.180622319870504 -0.2761125655017306 -2.9733118637969373
3670 -2.8574727402253877 -0.7205538586763778 1.6627051710408696
3671 1.389868687039252 -2.719830367223023 -0.15735494502347652
3672 1.1532710319124626 0.18845220122383427 -1.587923658184675
3673 0.11225000295978732 -0.71107230210737 1.8430235349821773
3674 0.7320520389194162 0.6415133965573728 0.2366654207108358
3675 0.33937675255480393 3.30004322184566 2.0793578790659235
3676 0.3190052435785407 0.03061106115414028 3.126553029094219
3677 1.1764155617973777 1.6191154588568493 1.042106308587921
3678 0.4864290622282406 -2.8039896233344335 -2.798259807729512
3679 -2.0569676686883107 -0.4813130930681583 1.652953622763103
3680 -3.328200326003099 -1.8738747706466194 2.6913680673632494
3681 2.207392279135964 -0.19919797089131888 2.479247675311454
3682 1.2627669367252579 -0.4212655712582871 0.4487995447050385
3683 1.5147948510090958 -0.05924800810336367 1.5787512495247413
3684 2.2000223672379526 0.5073732829262051 1.8934339950794146
3685 -3.2659953520053615 -1.4212522949206163 -2.857603297589523
3686 -2.8615575564152187 -0.1670148257873755 -3.354285972218807
3687 2.683029509673235 0.4220687325438207 0.7656817407281358
3688 -1.5885812131218213 2.848859200119564 -2.7990967472214576
3689 -2.282000762746927 3.012822089099644 -1.5152021271739808
3690 -2.6216701165457024 -3.1495210115383894 3.247456420374638
3691 -1.4874024084081503 0.8677295324207395 2.7845049038996823
3692 -3.4417115461679026 0.45748261600494877 0.7862363476410072
3693 -2.162526505405998 -2.9083365814905857 1.3013507404973659
3694 -2.436222164731615 -0.6428079643062926 0.3248063503655734
3695 0.693224122579542 -1.3930560151363947 0.42936683523097124
3696 0.18235697664787134 1.0570739720392064 1.5724437439468189
3697 0.0003432221724319952 0.9032798071671463 -1.8233166310483084
3698 2.5055139476496824 -0.25835410239982876 -2.097114872269906
3699 3.0469486390833564 -1.0918778792154162 3.2953271027764934
3700 0.27343778916433104 2.3766012842691686 -1.9898572966284698
3701 -0.5788451487340727 -3.0051802239102003 0.01580387547899402
3702 -2.183016142603089 -1.24244527610181 -1.2337795254477566
3703 0.40684166958571605 2.187370100142847 1.125688919799339
3704 0.3563675643041077 -1.8049715962007535 -1.9313305753550933
3705 0.33972405049084936 2.2163751594301018 -2.756297260515784
3706 -2.7042929484508713 -0.7298576605522684 -2.4507945392157886
3707 -3.282775424684514 0.3049496016182616 -2.1754812403165014
3708 0.8772508521928419 -2.0107110759193674 0.5574705629394309
3709 0.8826173023756596 -1.7859410093058286 -0.43666241511280646
3710 -0.9297457006377451 2.770159859056895 3.2763369318143862
3711 -0.5419597882235525 0.9843757315114455 -2.2228974634237253
3712 -0.16619645403755334 -2.164450944671811 -1.9257349296754256
3713 -2.504121640858998 0.08693489655646228 1.6247417612042887
3714 0.043651129131121236 2.1053023403560522 -0.9669595827832788
3715 0.2331191787901844 2.970755132716679 -2.6226817547806056
3716 0.6632625163583054 0.25365479282824427 0.8007266181180255
3717 -0.8492071719815164 -0.0768658291732057 3.0663248908299408
3718 -0.6550511093730903 3.452271394200849 -0.08240455636893726
3719 1.2762389648199381 -2.3801370107236957 -0.5123029297487732
3720 1.1897479436755822 -2.6867899409185023 1.4967320720030939
3721 0.9238959949902465 -0.08540158974929563 -1.9801136407531807
3722 -2.9141282176669665 2.1280541289536212 0.7836053319682731
3723 2.062924397723986 0.8963893498571993 0.02074341081959771
3724 -2.212699355525834 -1.8374827739152995 -1.6110410142281486
3725 -0.8617025015731292 -2.464736069271238 3.2964416105546683
3726 -1.757143403673969 0.3922522672496454 -2.0689283637246847
3727 -0.7510109155098855 3.1799519874622293 -2.369016603659126
3728 0.8595017155967667 -2.7301574840175937 -0.7075950729169921
3729 -0.6713818275209941 -1.1106340496287765 -0.5079277253555823
3730 -1.403941028881662 -1.2998728941228768 2.478870689824725
3731 1.8474763348194092 -0.6107642269387175 -0.931048648769396
3732 1.6868979523026 -0.37689450708944117 -1.2428081116114529
3733 0.9188924341861803 -1.1317943412287865 -3.1930204962851816
3734 0.1557298991938591 3.3815739824389865 2.0673654105626573
3735 -0.5379831582122291 -1.387448403556196 -2.213367965907697
3736 0.819865406478358 2.4107290960736885 -2.8221956017203733
3737 -2.9449978078932615 2.355686710970216 -0.5451625816863827
3738 2.5739357113260626 0.8692853992011527 1.2511399881539544
3739 -2.002391028789423 3.255283180507922 -2.76657374218266
3740 -2.4035084851787394 2.440350871364408 -3.259740385346669
3741 -0.05132084405974851 -2.3266221648311074 -0.779869572966133
3742 2.6550831892687397 1.336165894783785 0.03275625325853688
3743 -1.013286216887481 -3.312993095566369 3.2918161567383764
3744 -3.369396485164258 -2.187274438436845 2.0392558795288998
3745 -2.3669670419876057 0.649688439857313 -0.7794713079638642
3746 2.4280186088595923 -1.6300721222842842 3.2254307585866195
3747 2.045341491430967 2.9707756452286307 -2.277927966416976
3748 2.31053919250024 3.2148565579812916 2.9329243330165404
3749 -0.4099768528503975 -2.3245654575978523 -0.8163134713478812
3750 -0.8355232414204845 1.5257074833289777 2.1341771047974287
3751 1.2120371324278219 -1.7904361530795831 0.14120538831180707
3752 1.546050082905481 -0.7261055144443203 -1.6748151647744627
3753 -0.00465733507136075 -0.09263210680175468 1.0692667822521553
3754 0.20601468349713578 -2.728706477584999 2.917356619081842
3755 0.9302250411227451 2.476309656089595 -1.0017347069445177
3756 -2.8932168219543115 0.6299537211087003 -0.2670745860722827
3757 -1.997346114245631 -1.923996237971396 -2.294891962045
3758 0.945548087357941 -2.9760222634242774 -1.2963718588169002
3759 0.3645747121828468 -2.281526668995096 2.783341327228033
3760 -2.2358312459650493 -3.0557148676893737 1.9266961240936236
3761 2.1142491067631597 -1.5772850209987335 -2.3526350215715333
3762 -0.6434270797451317 -1.8830923812998657 0.026484236098777748
3763 -2.616511517890113 0.5025929104984432 -2.3225361893846417
3764 0.016218917052476675 -2.181390811913821 -2.8852002510819044
3765 -2.9963551758163507 -2.6402412536564794 1.8009133750273005
3766 -1.1015500218062682 1.1886994450674075 -0.8236626032494956
3767 0.22029741182652599 2.017156454182323 -1.4041111674982387
3768 2.8145857719069887 -3.1372634369458647 1.6393783907905402
3769 -3.1038764621161454 -3.446632500875567 -0.47741944860570645
3770 -0.7834647355358683 -2.4564522532606343 -2.8122566435278396
3771 -1.9978348308854386 -3.2171523296756788 1.563426147204294
3772 0.6970931883942599 1.3479928709832456 -1.8916844949976843
3773 2.2837671578133043 3.1030603546189277 -0.5149532494194
3774 -1.8299479193166732 1.7314496765644907 -0.30901795497357987
3775 -1.027690937459982 -3.188475183758973 -0.9090955783924859
3776 -3.065889794023673 -1.7095134361928381 -3.1694731831667715
3777 1.4352664886385917 -0.996470976317098 1.195706253971331
3778 0.6179424915010606 -0.16251089369938793 3.1362558952030093
3779 -1.8444211126843706 0.705145319501183 -3.010799061085835
3780 -3.120690482760875 -2.290994061779339 2.8410736938221772
3781 -0.8265721935187755 -0.28952885048262933 -0.07756591100463218
3782 -0.44910207976215866 -2.435329177448214 -0.7526496146285923
3783 3.374427714797787 0.8888911904473117 -1.4281412674808094
3784 0.3415548300492672 -1.6172351699386434 -2.4864543214494073
3785 -0.5154462273007221 -3.247996618451647 2.216300204859986
3786 -2.685914823793907 -3.2804178601613194 -2.872560273636966
3787 1.822611535124281 -3.2711842906770943 0.06054362989407121
3788 2.321953169494033 1.2698426335908541 -0.4288743766868153
3789 -1.5295688722273315 -1.9121715756735185 2.662482019317761
3790 1.1688959262869956 -0.19071804044202248 -0.3333552076665285
3791 -1.7423330091023452 0.16519278515847222 1.9712255229403446
3792 3.083772381490419 1.8620626113967094 1.0392596585574236
3793 1.087713314423612 -1.2480943413255638 0.7122438884605319
3794 -0.026982714791269537 -1.5972474882500312 1.2526970892300597
3795 3.405693336692371 0.39665838382109864 2.7776281173007646
3796 -1.3678878640425707 2.544379358673187 1.1295184817065158
3797 2.4334742763842563 0.09417380875324692 -1.2835414711196247
3798 1.463062060610794 2.476507433443632 2.3223092823525655
3799 0.3876008947030511 -2.8399275700545497 2.2146633386333225
3800 -2.513907601171739 1.7112072852302265 -1.4083699065859459
3801 0.44500266019138046 -0.06637682950348477 -0.583373972162338
3802 -2.9400924525529333 1.7515402334151622 -1.76154816910576
3803 2.5423827853559957 3.453503082724829 -0.14352895444055616
3804 -1.7772573412432902 1.4518227430349082 -0.8405522543153514
3805 0.10481536304880935 -1.0923847622385494 1.6968486065151367
3806 0.8201173993844069 -0.2747306055056727 -0.5088236306654654
3807 -2.6200126250124427 -2.974878706190844 -2.8387188571053565
3808 3.097532351756006 -2.1780692351945987 -2.4250961194139946
3809 -0.4531111752951468 -0.6091530650004002 -1.5350678456238196
3810 2.6097191003775744 0.17941599014210624 -1.204024890955514
3811 2.2022614859718295 -3.383984998033982 0.4920808321274016
3812 2.269422837162089 -2.6779847300479527 -2.769587244498116
3813 2.3141938872572236 2.352971076754465 2.2581044689591057
3814 0.9272000627577908 0.08042959106557468 3.021343952458553
3815 -2.292894701639223 -0.1432925617284637 0.8656510742402761
3816 -3.135179944339151 3.3299862395093256 0.1202291840185799
3817 1.9549126770830678 -1.2320273950673981 0.8419351814674801
3818 -0.32733031151075526 2.574960130153046 2.968413701877109
3819 0.8792608624428806 -2.831991171220045 -2.812370920617201
3820 3.002214601745451 1.4199441982596512 3.1916946439132983
3821 2.540229007050867 1.8584734761103663 3.0030031628292324
3822 0.8851553075837548 -0.6539143180749006 0.5193393468974611
3823 -3.2839191494985642 1.8444800724919646 3.1198206486458147
3824 -1.2434310579286711 -2.6835357670566973 0.823996379063728
3825 2.686214524303859 -1.4130261588689916 -3.0150241486967486
3826 1.9960112495396873 -2.558767470472626 0.8313015855077001
3827 0.8921387044588486 -0.93593908851803 1.211586882811438
3828 -2.383803060810902 1.4356034917783425 3.39067081811443
3829 -2.888176386969296 2.2960908318115454 1.329045061550404
3830 -0.6649679533697082 2.876781707963052 2.807292851237879
3831 -1.083426677694447 1.2767470967730623 -2.0375377234677883
3832 0.857939893259074 -1.2968876194731205 -2.7132540600310375
3833 0.9695123507173149 -1.609507447643631 2.8206937671426595
3834 2.6832237807251507 -3.233522171452033 3.2636743535452033
3835 1.1799259213033382 -1.6686125863042849 -0.8986319865223287
3836 -0.2219130707455578 2.6221804450746435 0.7192321322826767
3837 -0.22754484616151613 -2.061910814936791 -1.7891883841787277
3838 1.6804877810383891 2.6186286319251275 3.3102487902134308
3839 1.9168774944022353 3.136173327216697 2.3584193182518933
3840 -1.7330194166512294 -2.4774617803148313 -2.963449692976322
3841 -3.2008751230510595 -0.4168710789807239 -1.8207179552117772
3842 -2.263472582539064 2.9842455334477513 2.647940179128842
3843 -1.011155555039261 -2.1064817802217126 -3.457318785742451
3844 1.1866510023268304 0.6285525989137325 -3.0536218962831168
3845 -3.0908163955163954 1.5120681614388698 1.281341724507242
3846 0.3867652926333301 -3.0424826087838794 2.8587283955183778
3847 -1.6942931476231307 -2.1512787376355544 -2.002994424529991
3848 0.0879893636127328 -0.13807386930848217 -1.3929435791279676
3849 -3.2714817480141503 3.2587526148938086 0.17857419311813544
3850 -0.18055462909393344 -1.257642543416512 -0.5881857627329131
3851 -0.7634028897565203 2.5291750304136804 1.6564389450804777
3852 -0.11602392618813377 -3.2407211511216234 -0.07760090312635527
3853 -1.037214669558276 2.843066805128484 -3.262016732758953
3854 3.2143350389151046 2.3653278365127908 2.3170315209881136
3855 1.6534237983592814 -2.39993747585979 -1.1049057422493997
3856 0.2080156669528331 3.2190045681769126 -3.479217518104591
3857 -0.06800671065102125 0.9829014507094381 0.6816829913972016
3858 -1.5318486163697953 1.2963954631638228 2.9194459497492655
3859 1.4420832008093432 2.840738900895118 -0.8628763417308941
3860 -1.378080258912615 -2.662293857251239 -2.0398581445821056
3861 3.382849066153645 -2.9082505159534024 2.7478542239284867
3862 3.4337127963676806 0.7118129461549866 -1.6792694672184518
3863 1.2596306977220306 2.233601289814153 3.0143926891665953
3864 -1.470800799417029 3.0627929046732527 0.9390539203592362
3865 -1.3389415127569209 -2.3243122046144795 -3.480595053327843
3866 -2.4581277872352403 -2.0132682852215265 -0.8973193372245479
3867 1.0776702564414402 2.975841990755058 -0.17631238620217826
3868 0.8879629242215178 -1.9112328019529556 -2.321661479799991
3869 0.876053959205631 -1.3647780913650918 -1.8321770146140046
3870 -1.0761586967061774 -1.142976957068536 2.6404803441167743
3871 -1.815922079180944 2.159792737469028 1.3201541879806897
3872 2.161618378293539 -1.322952866798144 2.1332204547369145
3873 -1.024971487562511 0.9930924018080208 -1.056613733174337
3874 2.1293887875773034 -3.190735098602767 2.6327424831944883
3875 -0.372765602827538 0.22151105817342093 0.37592721047608174
3876 1.714165281168526 1.1386064890062977 1.5899706493097234
3877 -3.0152507056255167 -1.8650049735620844 -0.4894507506940491
3878 -2.293129201707114 2.8361692707602115 -1.5369008101756547
3879 -0.5140982281610572 -1.3542884987178065 1.4487947698609307
3880 -1.9566221779244104 -2.6265413674871727 -3.2490518777307797
3881 -0.347889655798735 3.0692843589816796 -0.6903450945221886
3882 -1.4205828346617178 2.7501807755429706 -0.31830495689270677
3883 2.061870699150526 -2.971713627208127 1.91183229064169
3884 1.443161327480303 0.19870043911148927 -2.363401318820333
3885 -1.6542686283394186 -0.7675170694831354 1.3123311252059344
3886 2.172787320199555 -0.4655670379081862 3.310132701964333
3887 -0.03421770817980073 1.3768991543881275 -0.5130924568171801
3888 1.7615754520373457 2.08033382437308 1.5501651772274763
3889 -0.7174860587620848 -0.8655474823762084 0.842846333390724
3890 1.1449911153738874 -0.5580155918499692 -0.2349113250529801
3891 -1.2443670987961097 2.346538794517042 -2.038695992345693
3892 2.153028282925383 -0.3618917750883954 1.7627475825924448
3893 1.0714925646096147 2.9579424763376685 -3.4231588371320893
3894 0.894435993002736 3.0710671009119515 1.589380633410189
3895 0.9097610179782836 -2.3480081295123263 -0.3371453462337684
3896 -3.156851646861633 -1.029685431868732 -3.383290319288444
3897 -0.34371854203702185 -2.9545558568246273 -0.3871087624786356
3898 1.4339572973023695 -2.237936343580424 1.8112663765816504
3899 -0.11626473631076203 -0.36731240859618264 0.6273183732047191
3900 -1.7049960703947087 -2.0969854475541503 -3.02865853340409
3901 1.2261551000072504 0.18629285408592386 -3.27654863735096
3902 1.2012711348905079 -2.7962404507205605 2.869403789951057
3903 -2.211255229566612 1.6718288021123882 1.1450937915549095
3904 1.2209369038837095 2.4532287617209385 -1.3628758428134753
3905 -3.134464078619631 1.520132440396977 -1.5964112973423117
3906 2.7952926248590897 -2.1240756147045228 -1.5666025762062228
3907 -1.4209578091810529 3.368688502614168 0.04294467453435762
3908 -2.7941016726240546 -1.4315096079431737 -2.234651429260538
3909 2.9853294592427093 1.3802375697365636 0.2300185160447538
3910 -0.6438783936805078 -2.54762121962657 1.3073187696422273
3911 0.9785810434342287 -1.447487372309238 -0.8654626617196918
3912 -3.3221334694125972 3.201921316381606 0.07215744677256086
3913 -3.1850562863404344 2.4635475220436334 -0.9530829377364389
3914 -1.846059619267449 0.8495830718520088 2.307938960924223
3915 1.0902652223774356 0.11759579735244906 -2.1103340760008655
3916 2.334334686065682 1.74485744716101 -3.3478651660308825
3917 -0.1337524664819498 3.3066989663892405 3.211184846429505
3918 -2.0817520329104164 -1.7898541617133972 3.0020298062703747
3919 -1.6326394300620464 2.8777857543335856 -1.0798132198332193
3920 -0.22493297012876312 0.3116628263131649 -0.0775853696923246
3921 -0.7761442438060856 2.9270761990512453 -3.1398456746853594
3922 1.0940794409901273 1.936827759016378 -1.9511184816130926
3923 -0.04180169786946821 -1.514535036164996 0.33928010126109026
3924 1.7288988496957813 -0.379668320783315 0.5826364502157163
3925 1.6827118690800835 -1.525350492542988 -1.4977789316535113
3926 -0.459610892617029 0.8813694827381582 -3.2728022115428876
3927 1.8811094293089836 -2.8371119707785923 1.0915090548772963
3928 0.3138491231824468 3.340853720000503 2.831657487248039
3929 0.09144680631645696 2.6055298638711717 -2.2989072129429258
3930 2.668270981302294 1.5208434495013339 -3.4878902274937786
3931 -0.49543947042621206 0.8117514416110606 3.1765410667988365
3932 -3.0005805083527792 2.4723440154994423 1.554788629744487
3933 0.861131185717393 -3.026471060810151 2.0573407219941724
3934 -2.926016563821666 3.0210500395337077 -1.6421286526176202
3935 2.621899075476733 -2.7328767244392944 2.0350624743225416
3936 3.2822208636676837 1.406146319325081 -0.32600898264406236
3937 -2.8470095801975868 2.116164890109871 1.661597817665921
3938 -3.380010538646037 -0.6393549947159372 2.993230467166796
3939 2.7323666739330412 -0.852748377468173 1.4155638430683575
3940 0.10825357587683529 1.3280224500980915 1.579970891580588
3941 1.9364329792365227 -0.38860779273169666 2.5924298316003247
3942 0.3215374608099719 1.0653592285985676 2.4086612663715314
3943 -1.6425431415392295 2.523014322232755 1.9239836513506496
3944 -1.9500534431703294 -2.957087932257076 -1.419473714418271
3945 0.6823252078320291 2.2879046089508885 2.1572869132677703
3946 2.059137575319322 -0.46239454348320735 1.264610714276156
3947 2.9375597538301648 1.3165176315195575 1.9982103012194166
3948 -0.14955433565519455 0.7114537661087184 -0.7953040313066961
3949 -0.6857926196681243 -1.0881610926174647 -3.4436852808333436
3950 1.941720382931809 -1.4923720420620858 -0.8853195821871856
3951 2.05712343678526 0.2895014822347826 1.1747462759935288
3952 1.2995207690110704 1.3576955115027454 2.0043918248464836
3953 -0.06725383861968141 -0.20498726564100034 2.068433446946906
3954 -3.3496090687572906 -1.8139816163658078 -1.1072410715931418
3955 2.4823622279117963 -1.8098572189235358 -0.9955379947127654
3956 -2.5556414459623515 -0.7183702832486247 -3.162169455944007
3957 -0.38367060204049647 -3.1204944020284455 -0.2723351672008804
3958 -0.44277498658837805 0.09355869121104435 2.2195869441472853
3959 -2.8113234104623417 -0.20766956742766826 -1.4887858403533865
3960 -1.5682238292578727 -1.03981387539751 -0.5944288690136917
3961 -1.880723047725355 -0.3994832429702511 -0.25294601579618164
3962 0.1575824158918071 -0.08670024284292803 -3.044462764819481
3963 -1.4087923040235533 0.2131994785665158 -0.9027017720199776
3964 0.5842468056513737 1.0118638607298962 3.0035950575652888
3965 -3.008278810581554 -2.340341019837074 -2.969418031500783
3966 0.29982639940163586 2.9648872362126393 2.5661488048958505
3967 1.541407945149776 -2.618765565668861 2.8661687589519365
3968 -1.2167854434803556 2.224219959344387 -2.4021300983349696
3969 -2.022645418251259 1.9542786987969236 0.6772385214235913
3970 -0.10230625391459176 -1.071050876456487 0.3788343216592449
3971 2.129051621823123 -1.9367754555720866 -2.5333634971755856
3972 0.042347326156248075 0.9543991622748139 -0.8276700552033646
3973 2.074097158534426 1.8179595054103002 0.31373601353860986
3974 1.493093857328542 2.0094883003509247 1.2106123854153088
3975 1.999932623065556 1.0614171169714561 -1.560068588648349
3976 -2.335500500602434 -3.386394961983266 1.5120435777347074
3977 2.1983073053176554 -0.6348545173668048 2.5050040651156014
3978 -1.8539714578735824 -0.6313033842078656 -0.09744119444040535
3979 -2.299176054972921 -1.9034309381261363 -2.6891211396723786
3980 -1.7500591200452802 1.8058311644771237 -2.826860317741394
3981 1.7035737092709369 3.064373918214193 -0.1716693912071672
3982 2.7950305964523 0.3927174259220745 -1.17171102974831
3983 -1.4343266140616253 0.14172802805241938 2.079207833183137
3984 -2.2028159084123815 -1.8232945030447134 1.5472754074153754
3985 -0.840915975978396 0.859175924509035 -2.5618937973547316
3986 -1.9377991106181855 2.3010495390191714 1.6215834176732578
3987 2.32700719139977 3.1643351208437487 -1.8549238660288074
3988 -2.743744380699979 0.5975499883507052 1.8590423598218895
3989 0.05296665198202652 -0.5049079958588356 -0.42642258848299824
3990 -1.846591371898552 -1.166878925556579 2.320955430782154
3991 -1.6044690285921954 -1.1908854160085054 0.2447298704722639
3992 -2.5355055778912505 -1.4093548156223399 3.323606009472564
3993 -1.9715860441133382 1.9418251161149438 -1.008991408468242
3994 -0.28391880750427634 -1.4025662279907556 -0.2325777166332576
3995 3.37306724379304 -1.2144315657307148 -1.0152535190354266
3996 -1.7206440071039553 -2.1050877254169578 -0.7895531028499885
3997 -0.9198006773159897 -3.1014450106547726 1.538379867370044
3998 1.907240899981703 0.350133792718047 2.878430958124924
3999 -2.7471381492149938 -1.0758816551999477 2.2363896627685405
4000 2.763789515449862 1.2974090068435022 -0.8080388464895294
